1530

Si          0.5169399434457942      -1.6523163562562679       0.6163897107920722       0.0000000000000000       0.0000000000000000       0.0000000000000000 0 0
C          -1.0214554843747288      -0.8826639914346348       1.4320967123567758       0.0000000000000000       0.0000000000000000       0.0000000000000000 0 0
H          -1.4499217852365909      -1.2517601567484453       2.4896606325882598       0.0000000000000000       0.0000000000000000       0.0000000000000000 0 0
C          -1.3779231743153173       0.2025620409842244       0.7364055256328665       0.0000000000000000       0.0000000000000000       0.0000000000000000 0 0
C          -0.5254690740409544       0.4887216240974563      -0.4582617930750947       0.0000000000000000       0.0000000000000000       0.0000000000000000 0 0
C           0.5961362867300783      -0.2837487115948765      -0.6791776905433444       0.0000000000000000       0.0000000000000000       0.0000000000000000 0 0
H           1.3344049017585062      -0.2101556633265602      -1.3899099390436467       0.0000000000000000       0.0000000000000000       0.0000000000000000 0 0
C           0.3311760665584602      -3.4536619534994637      -0.0570444252783009       0.0000000000000000       0.0000000000000000       0.0000000000000000 0 0
C          -0.0339110550567971      -3.6180561492251826      -1.4080396672157471       0.0000000000000000       0.0000000000000000       0.0000000000000000 0 0
H          -0.3410752557692200      -2.8349272519208855      -2.1115395340688305       0.0000000000000000       0.0000000000000000       0.0000000000000000 0 0
C          -0.3557836328491173      -4.9565105219538710      -1.8551707323856261       0.0000000000000000       0.0000000000000000       0.0000000000000000 0 0
H          -0.5550178987596968      -5.2133460038665760      -3.0520818775788738       0.0000000000000000       0.0000000000000000       0.0000000000000000 0 0
C          -0.1913915245827180      -6.0908927543307936      -1.0133975351832216       0.0000000000000000       0.0000000000000000       0.0000000000000000 0 0
H          -0.4214235370967905      -6.9993179987043526      -1.4475440539864390       0.0000000000000000       0.0000000000000000       0.0000000000000000 0 0
C           0.1973893099852799      -5.9124190746224006       0.2826333235652605       0.0000000000000000       0.0000000000000000       0.0000000000000000 0 0
H           0.5358211018436432      -6.7285484894623480       1.1054482179094087       0.0000000000000000       0.0000000000000000       0.0000000000000000 0 0
C           0.5580955656424549      -4.5603426302043832       0.7884157344753326       0.0000000000000000       0.0000000000000000       0.0000000000000000 0 0
H           1.1811666220430022      -4.4499722019240870       1.6519670597386984       0.0000000000000000       0.0000000000000000       0.0000000000000000 0 0
C          -2.4161182867218498       1.1280892753223295       1.1647806914469445       0.0000000000000000       0.0000000000000000       0.0000000000000000 0 0
C          -3.6779733593251982       0.6130018077805026       1.6824003687369977       0.0000000000000000       0.0000000000000000       0.0000000000000000 0 0
H          -3.6333703884338431      -0.5004799405260263       1.7797755935424835       0.0000000000000000       0.0000000000000000       0.0000000000000000 0 0
C          -4.7478484249137578       1.3943729797631299       2.1558856549985705       0.0000000000000000       0.0000000000000000       0.0000000000000000 0 0
H          -5.6658694850321156       1.0167221929324608       2.7736785026388731       0.0000000000000000       0.0000000000000000       0.0000000000000000 0 0
C          -4.5032876296192743       2.8304775515365552       2.0892306772573974       0.0000000000000000       0.0000000000000000       0.0000000000000000 0 0
H          -5.2320627681365011       3.6900214264842859       2.5186086175245634       0.0000000000000000       0.0000000000000000       0.0000000000000000 0 0
C          -3.2832010428022818       3.3237040684221011       1.5546732370697338       0.0000000000000000       0.0000000000000000       0.0000000000000000 0 0
H          -3.3478756952040007       4.5598340249116678       1.5359353984650106       0.0000000000000000       0.0000000000000000       0.0000000000000000 0 0
C          -2.3351327851872865       2.4384900066050079       1.1416782644528833       0.0000000000000000       0.0000000000000000       0.0000000000000000 0 0
H          -1.4725797309840842       3.0140719120871164       0.7436287769746581       0.0000000000000000       0.0000000000000000       0.0000000000000000 0 0
C          -0.8878531456093399       1.6442010809798848      -1.4046365524466919       0.0000000000000000       0.0000000000000000       0.0000000000000000 0 0
C          -2.1708338827306548       1.9063631693788974      -1.8537840980007347       0.0000000000000000       0.0000000000000000       0.0000000000000000 0 0
H          -2.9221751504495299       1.2423559623697642      -1.4826408432122458       0.0000000000000000       0.0000000000000000       0.0000000000000000 0 0
C          -2.5269386911651752       2.8281012584933087      -2.7458045119959067       0.0000000000000000       0.0000000000000000       0.0000000000000000 0 0
H          -3.5333636036686453       3.0808987491406921      -3.1660976460525392       0.0000000000000000       0.0000000000000000       0.0000000000000000 0 0
C          -1.5174395069545483       3.7341932984654651      -3.1749455985824868       0.0000000000000000       0.0000000000000000       0.0000000000000000 0 0
H          -1.7469031763631391       4.5387474015917899      -3.7890809824314067       0.0000000000000000       0.0000000000000000       0.0000000000000000 0 0
C          -0.1668121936042857       3.5828605801893438      -2.7042887677824741       0.0000000000000000       0.0000000000000000       0.0000000000000000 0 0
H           0.7721047241809353       4.0294264057320603      -3.0171715663003953       0.0000000000000000       0.0000000000000000       0.0000000000000000 0 0
C           0.1111661791589365       2.6068741138221050      -1.8214950601701601       0.0000000000000000       0.0000000000000000       0.0000000000000000 0 0
H           1.0476731671318600       2.5519157672913249      -1.4059686777003364       0.0000000000000000       0.0000000000000000       0.0000000000000000 0 0
C           2.0687654975374850      -1.6220447897523336       1.8036970325429813       0.0000000000000000       0.0000000000000000       0.0000000000000000 0 0
C           3.1036667973898640      -2.4783014322956456       1.5539768002774643       0.0000000000000000       0.0000000000000000       0.0000000000000000 0 0
H           2.9130799926050264      -3.1003233366594598       0.5822211468537422       0.0000000000000000       0.0000000000000000       0.0000000000000000 0 0
C           4.2416352033750062      -2.4408775689703015       2.2600804909726531       0.0000000000000000       0.0000000000000000       0.0000000000000000 0 0
H           5.2021068121433292      -3.0509204369311256       2.1708531437762826       0.0000000000000000       0.0000000000000000       0.0000000000000000 0 0
C           4.3977055483912286      -1.5804509916270844       3.3217727114040088       0.0000000000000000       0.0000000000000000       0.0000000000000000 0 0
H           5.1797115551236956      -1.5121982189506840       3.8901847769988969       0.0000000000000000       0.0000000000000000       0.0000000000000000 0 0
C           3.3486331988078044      -0.7272744449799591       3.6824019495402229       0.0000000000000000       0.0000000000000000       0.0000000000000000 0 0
H           3.5471191371989308      -0.1248376903131110       4.5991478343797727       0.0000000000000000       0.0000000000000000       0.0000000000000000 0 0
C           2.1497176365930457      -0.7065603438221988       2.8282957977115863       0.0000000000000000       0.0000000000000000       0.0000000000000000 0 0
H           1.3843913364297125      -0.0934995381828845       3.0134535199403576       0.0000000000000000       0.0000000000000000       0.0000000000000000 0 0
Si          1.6740633039278572       2.3056891373587551      -5.8659161458124123      -0.0000688820188145      -0.0001474327855058       0.0002094846087342 0 0
C           2.7567034105089454       1.3724884332299554      -7.1219803306223355       0.0001778761300803       0.0003707549426915       0.0001328981877194 0 0
H           3.1346397219383793       1.6612112825717771      -8.1064762980881024      -0.0016550998676223      -0.0004454968433177       0.0006610555850814 0 0
C           3.0548459503680463       0.2128422102903741      -6.5162624353887493       0.0000261934503556      -0.0001286633917402       0.0001010785775004 0 0
C           2.5486043003674173      -0.0531230180530097      -5.1129298911940380      -0.0000071793606054      -0.0000462196310283       0.0002054025218431 0 0
C           1.7760220619508562       0.9826067711919180      -4.6264138785353834       0.0001195865294512       0.0002359809789491      -0.0004845064648974 0 0
H           1.4097771221134661       1.0790227810068895      -3.6255430003194036      -0.0016628684182434       0.0008016071580115       0.0002040725479439 0 0
C           2.5582713686425747       3.8354293437870517      -5.1908631644745213      -0.0000879769025382      -0.0001390510577611      -0.0003352344650109 0 0
C           3.1092367276392925       3.8841721266514053      -3.8408627618915605       0.0000997535851118      -0.0002632897821912      -0.0000061993206054 0 0
H           3.0839138865109872       3.0065795027810003      -3.2692558259694109       0.0001534003254090       0.0002756818076624      -0.0004535541657094 0 0
C           3.7029274895816311       5.0735102983868199      -3.4052129852539839       0.0000072949816642       0.0003636829018026       0.0004258308878114 0 0
H           4.1488049048813895       5.0589626109532331      -2.3076249234633162      -0.0004715511702606      -0.0005889029456280       0.0004434427054706 0 0
C           3.8201877801081219       6.1517236057147118      -4.2477955306495678       0.0000537813778394       0.0001958157147057       0.0003135839157438 0 0
H           4.2833619321452447       7.0963490385440560      -3.8738982407437872      -0.0009612642811423      -0.0012789806949917       0.0000358275118499 0 0
C           3.3465939152194526       6.1255636925145849      -5.5246479400962727       0.0000079867282830       0.0004032639632237       0.0001720727801411 0 0
H           3.3748113769741255       6.9628335225838205      -6.2028471046252891       0.0001927607563746       0.0013875721960045      -0.0014044993058138 0 0
C           2.6621771032236041       4.9674118453914664      -5.9657891658216391       0.0002191938149119      -0.0002285478281588      -0.0001360114273848 0 0
H           2.2666213396930903       4.9659736221797930      -6.9010173973154503       0.0003291049932734      -0.0007724039131729      -0.0001816737469894 0 0
C           3.8059934703523202      -0.8010408742013688      -7.2930341083793024       0.0000837847322035       0.0001132152069201      -0.0000891671401892 0 0
C           4.8891409216304353      -0.3603330180780023      -8.0278102536868090       0.0003028318409051      -0.0001497994674813       0.0000366907629461 0 0
H           5.0440391376228657       0.6817304074480203      -8.2254102065696468       0.0002388957261176       0.0008062924248563      -0.0004188391890544 0 0
C           5.7579085480983956      -1.2577147743341357      -8.5667842096233908       0.0000658764840611      -0.0000327969457821       0.0000832328352049 0 0
H           6.5844927049986026      -0.8492555871500499      -9.1605677716003253       0.0002930960411300       0.0006035958873963       0.0003224287815954 0 0
C           5.6011129225937983      -2.6195268437685795      -8.4653158165380304      -0.0001463469955925      -0.0002278809603019      -0.0000113431593807 0 0
H           6.2673878737578415      -3.3106136474960657      -9.0931056156257259      -0.0006817201440937      -0.0006160339313548       0.0001963275116769 0 0
C           4.5903058809603685      -3.0420020581024341      -7.6301308129028413       0.0001976708945594       0.0000791072306948       0.0000599778902393 0 0
H           4.5149612326596635      -4.1483066840627307      -7.5194605233821123       0.0002638103669064       0.0010539582840988      -0.0001677696108120 0 0
C           3.6645485757358389      -2.1561792789064991      -7.1276126838534664       0.0001054306658774      -0.0000146975416032       0.0001376750902679 0 0
H           2.8405658929634048      -2.5402007749484556      -6.5458297839429109      -0.0012662433771683       0.0002208086550270      -0.0001586852547157 0 0
C           3.1015448021290855      -1.0848345680618960      -4.1984024004873595       0.0000893613071888      -0.0002717302835558       0.0001434881029361 0 0
C           4.4878583593481354      -1.1597343839599417      -4.1588607372985686       0.0001930511586467      -0.0003410294962142       0.0003029603806109 0 0
H           5.0330031533508501      -0.5585774834921884      -4.9300251727020932      -0.0002812912646835      -0.0005306748817153      -0.0007791573825620 0 0
C           5.1840602520954935      -1.8206153099353313      -3.1697219849885712       0.0000931519222617       0.0000758137631421       0.0002590857918236 0 0
H           6.3306017341109655      -1.8013546905036772      -3.1494753800417996      -0.0001461133005664       0.0005594405064835      -0.0005507178960450 0 0
C           4.4812049072543720      -2.4326383779906871      -2.1684422999763138       0.0000265705445816       0.0000799595020897      -0.0003227892953492 0 0
H           4.9078720445341100      -3.0805063473904504      -1.4509027357580133       0.0007106862685168      -0.0020604153190492       0.0023152858330998 0 0
C           3.0392720600401231      -2.3879863957956848      -2.2135230532812327       0.0000075784689779      -0.0000367935385568       0.0001054315967255 0 0
H           2.6024714160862792      -2.8874547017065963      -1.2577126634998737       0.0002493769531598      -0.0004728184212341      -0.0003227317779913 0 0
C           2.3982333739219679      -1.6873763803272199      -3.1342069667587125       0.0000308939076896       0.0000091459626126       0.0002070992817841 0 0
H           1.3157752954092472      -1.5089888527274067      -3.1012231055432267       0.0007324934547914       0.0000508481206318      -0.0007046217407457 0 0
C          -0.0587887639935511       2.5866904421087664      -6.5101721986033922      -0.0002402221637898      -0.0000148258789951      -0.0002592129382390 0 0
C          -1.1023049392775435       2.0827707489636422      -5.8061041116213552       0.0000954536825917       0.0000414056550826       0.0001619350534969 0 0
H          -0.9531056974988414       1.6148435933145791      -4.8440617584659993      -0.0003874667171798       0.0002522841460753      -0.0010255484248019 0 0
C          -2.3888287939471162       2.2539023345755975      -6.2616487510174217       0.0000795930661924       0.0001933122776885      -0.0000550804238194 0 0
H          -3.2680185047155952       2.0630921191406433      -5.6545080445030056      -0.0005481750515275      -0.0000327694362079      -0.0003227102280977 0 0
C          -2.6141750244961037       2.8472019029801201      -7.4851650641386653      -0.0002098740365912       0.0001027744395980       0.0000996156959732 0 0
H          -3.6377443305501984       3.0761655634911178      -7.7496760277815468       0.0013218780302010      -0.0000022908413534       0.0010130507320726 0 0
C          -1.5428760370702972       3.1288565018216508      -8.3093749784232145       0.0002673215258325       0.0002533736585140       0.0000141564498165 0 0
H          -1.7284578141083844       3.6289793083730979      -9.2923923216785020      -0.0003882599440765       0.0004458378414516       0.0013229529611407 0 0
C          -0.2878799639548192       3.0179202942274852      -7.7953452553306199       0.0000813930514403       0.0000583876254714       0.0004109703277741 0 0
H           0.4852706324267101       3.4454238478807233      -8.3635428362021873      -0.0000662393539864      -0.0000009631878401      -0.0003096773404013 0 0
Si          1.8295022241837489       0.4460034671548699       8.2105305154153179      -0.0002224647793879       0.0000550629481664      -0.0001737217727330 0 0
C           3.4173818887736025       0.0094684041428988       7.1449765279391384      -0.0000319835376813      -0.0000536000025848       0.0000993024207217 0 0
H           3.8502693350618657       0.4020550001116529       6.2899252850818996       0.0009003766676002       0.0002226958102607       0.0002454281381989 0 0
C           3.8498951406821358      -1.1758946880872592       7.6945365347118928       0.0000792954193606       0.0002242281817114       0.0001339396443469 0 0
C           3.2027020981479359      -1.6552971017432137       8.9890444647947394      -0.0002797398310503       0.0001028724498466       0.0000456965725343 0 0
C           2.1045053132858271      -0.9468139704999304       9.2572354259289789       0.0000338298290933      -0.0000735827451360      -0.0001064895426906 0 0
H           1.4781928424900890      -1.1493828479973736      10.2151620283906031      -0.0007381284424330       0.0001966250320573      -0.0002769238770690 0 0
C           2.4739313956985178       1.8944245108972648       9.2371774716872892      -0.0002854897058667       0.0000427750138436      -0.0000109541490574 0 0
C           3.7013083522411065       1.8347994060433448      10.0518847114586887      -0.0001642558872963       0.0000937580497858      -0.0000062267805999 0 0
H           4.2194712582270570       0.8864121894158948      10.0905362965850891       0.0000079637805899       0.0007852503033714       0.0005245589242339 0 0
C           4.0501616031173668       2.8518512726255123      10.8733973806542821      -0.0001358628794499      -0.0000904041839135      -0.0001477355072057 0 0
H           4.9362143168836985       2.7450858193007872      11.5273189695750293       0.0007907484864324      -0.0004755990582749       0.0004458680200747 0 0
C           3.2642542515788251       4.0313381308602336      10.9045672382833452       0.0000701484068961      -0.0000263605625150      -0.0001430713634955 0 0
H           3.5171475646113524       4.7190795166650741      11.7861856084076440      -0.0000238934731666      -0.0010720822509350      -0.0013315936839072 0 0
C           2.0972870677790700       4.1335664702938733      10.1572161839664474      -0.0002001598218477       0.0001837863706512       0.0002186081504717 0 0
H           1.4797048871391232       4.9562807116103835      10.2735283371713635       0.0000690500358753      -0.0001853282237871       0.0009106121621136 0 0
C           1.7793013029957845       3.0811823232300877       9.2720590723453977      -0.0001193530124406       0.0001613667854695       0.0000470704936406 0 0
H           0.8273032765311824       3.0823232584717517       8.7548971019056552      -0.0009088295870574       0.0006977708256766      -0.0010591027908370 0 0
C           4.9613656678600160      -1.8837966298615680       7.0766146639764891      -0.0001048683036531       0.0000229692137029       0.0002523970738638 0 0
C           5.8110551462913245      -1.1853040836538662       6.2144263333120531       0.0001613808316717      -0.0001665425467097       0.0000119394549766 0 0
H           5.7187943632719485      -0.1479735665318673       6.0887753411265910      -0.0001587875284012      -0.0005903080355108       0.0003203752078710 0 0
C           6.7773601583220566      -1.9041357986546945       5.5190817764592044      -0.0001478671710860      -0.0001060359240226       0.0002999099178255 0 0
H           7.4976394752983326      -1.2976659490815770       4.8145564095144016       0.0005753793219539      -0.0000104459184548      -0.0002781230517451 0 0
C           6.8609224153995756      -3.2781115430196204       5.6144597873327227       0.0000641122461250       0.0001225445642799      -0.0000902659306655 0 0
H           7.6928834017169034      -3.8478563566175916       5.0267188107934588      -0.0010278570249213      -0.0001396810555777      -0.0002426616944541 0 0
C           5.9946959559925102      -3.9416025167520310       6.4764045156337602       0.0002023503196073      -0.0001376587421048       0.0003862755709785 0 0
H           5.9750625706238649      -5.0365105111990536       6.4087741435488441      -0.0003210423820075       0.0011857704627435      -0.0002013553097402 0 0
C           5.0239521663759046      -3.2284355063641090       7.1609201880428772       0.0002299965208165      -0.0002770574603308      -0.0000148625073263 0 0
H           4.3289393373607172      -3.7578243393710995       7.7098962041718870      -0.0001594227615266      -0.0005029298166267      -0.0008704784098592 0 0
C           3.7105347244038316      -2.7439855970897251       9.8371341963388534      -0.0002752666362400      -0.0001393083369343       0.0000774502657874 0 0
C           5.0935067713544511      -2.8160454959127668      10.1369974838896226       0.0001311463254930      -0.0001109037997124      -0.0001906607139891 0 0
H           5.7472999948760721      -2.0886665093551775       9.7399784010268107      -0.0003902220075252      -0.0017199941556606       0.0000852818501241 0 0
C           5.6463556355397237      -3.8431703714652259      10.9259477994012180      -0.0000392152160760       0.0000262412805062       0.0003306170394484 0 0
H           6.7269194159435921      -3.8669066686626419      11.1134895109881064       0.0006982039765167      -0.0004868690126663       0.0007875826507784 0 0
C           4.7694962315392786      -4.7171993684021185      11.5408899115487529       0.0001467461756879      -0.0002539295340666      -0.0001455673128704 0 0
H           5.1547771385264420      -5.4544647949535001      12.2324528273390385       0.0002694655839391       0.0005691770405997      -0.0015305525521572 0 0
C           3.4139839452799725      -4.6353223793987777      11.3472599915735941      -0.0000664051025070      -0.0000301145272959       0.0002858729233822 0 0
H           2.7358569725580981      -5.3733346707513761      11.8135998854605528       0.0002833949062454      -0.0004066849862938      -0.0001175975080599 0 0
C           2.8751615168664224      -3.6830370181896752      10.5582182580961863       0.0001164430289983       0.0000895154074243       0.0000677587489836 0 0
H           1.8201855214323688      -3.6015391680772209      10.4381052247914976       0.0001651856632529       0.0002084340871485      -0.0001483555769577 0 0
C           0.3307671027680887       0.6324913293939526       7.1736632675604364      -0.0001870125849837      -0.0002464109372402      -0.0002238062158984 0 0
C          -0.8359019472132504       1.0724746940281218       7.7749546105001492      -0.0000280677141548       0.0003020725292824      -0.0001343704607796 0 0
H          -0.9062957017877935       1.3051112928827888       8.8428517360797585      -0.0012679275037059      -0.0005624380868718      -0.0013101252680311 0 0
C          -1.9736282779052108       1.2675283479936521       7.0540098252537362       0.0001330628018403       0.0002392648482015      -0.0002697745985274 0 0
H          -2.8471759760949942       1.6042144146343729       7.5742151223005010      -0.0003663857542274       0.0011352922310594      -0.0004788643954332 0 0
C          -1.9101371900835984       1.1376532548593870       5.6488080111238768      -0.0004367797011699       0.0004424379836160       0.0000460333705245 0 0
H          -2.7784609417581949       1.3291747388725350       5.1457531871283804       0.0028000011865448       0.0001582066854730       0.0003992559178276 0 0
C          -0.7735127036387324       0.6179155130483911       5.0901721026362301       0.0004211705194548       0.0000772152846212      -0.0003145215389170 0 0
H          -0.7590876761338136       0.4397987777804830       3.9937931074224498       0.0000464691948410      -0.0006206628182808       0.0002536062063203 0 0
C           0.3082072329474316       0.3591073730300553       5.8597225573744085       0.0000363606206988      -0.0000800402273849       0.0003845685228417 0 0
H           1.1800266114515261       0.0618602295603703       5.3570877577220086      -0.0012559834591594      -0.0006212053617079      -0.0000426405070261 0 0
Si         -0.4690665540513038       7.0997861275473415       3.3719538680361478       0.0000637591220537       0.0001051342868644       0.0002564635914322 0 0
C           0.4797068572809414       8.1027739119179447       2.0300300512992204       0.0000907710593048      -0.0002619843112000      -0.0001446136493232 0 0
H           0.4531187911020897       8.0222299724486437       0.8626918936290059      -0.0001590544590138       0.0004065670078899      -0.0002695571953105 0 0
C           1.2301116448113423       8.9978677841684647       2.6663469905768604       0.0003500080302736      -0.0001727749956704      -0.0000988405895039 0 0
C           1.1167133600733721       9.0214866844501369       4.1732606216525054      -0.0001533163377742       0.0000835644189373       0.0000709395713012 0 0
C           0.1611045264422798       8.2291970454337449       4.7598088306337196       0.0000154709274030       0.0000973628660584      -0.0002462782906975 0 0
H          -0.0293515755248496       8.2329137452781147       5.9195512073140746      -0.0004027613654580      -0.0005833839314862      -0.0013301073952371 0 0
C           0.2693080027171329       5.3754929459132530       3.6056205666386325      -0.0001834210729123      -0.0000145782950383      -0.0001569392428187 0 0
C           1.2799175204279074       5.1289291787122782       4.5507852116604255      -0.0001299507267199      -0.0000530022234288       0.0001165003119240 0 0
H           1.6919514835048401       5.9740547098361443       5.2521280272742672      -0.0014060708659017      -0.0003724994502342       0.0008919407768358 0 0
C           1.8173045487470534       3.8086880446038811       4.6928569930099853      -0.0000674395129008      -0.0001798339674596       0.0001160998350917 0 0
H           2.6327740149742103       3.7260839338716862       5.4365181603352575      -0.0007161747091131      -0.0000201243782272      -0.0003453009468712 0 0
C           1.4101362612969650       2.8107981086911309       3.8475431267232549       0.0000293221790553      -0.0000084183125178      -0.0001878040448767 0 0
H           1.8659386196065946       1.8709369387587749       4.0025576421979849      -0.0003001929713333       0.0004907775000626      -0.0006714984172699 0 0
C           0.3544621639866307       3.0979756740101783       3.0215332064524834       0.0000529936794076       0.0000955645564098      -0.0002894148986477 0 0
H          -0.0987182791893432       2.2258781753372170       2.3205463464976144      -0.0004403913630068      -0.0015853262527958      -0.0006701372616491 0 0
C          -0.2144762706200060       4.3210608697401049       2.8986161460969400      -0.0001796631658036       0.0001989527583209      -0.0001676959088702 0 0
H          -1.0764477501007337       4.4559516620661030       2.2905512674692114       0.0008873184299952      -0.0002091991472935       0.0011425083197466 0 0
C           2.1760485179523288       9.9062397880511135       1.9894754730073678      -0.0002093807991766       0.0002929501247985       0.0003055783799383 0 0
C           2.9538272630672258       9.4287370708251377       0.9705490911918154      -0.0000413643125927       0.0002187810969811       0.0001290393650158 0 0
H           2.8255803298362756       8.3979669306419478       0.7789699890034421      -0.0006355838852984       0.0001228816645763      -0.0011001416634584 0 0
C           3.9417780967145530      10.1609719974675983       0.3974111034284836       0.0003267478879423      -0.0000025725237056      -0.0001927980562890 0 0
H           4.6452724409595199       9.7558774023849235      -0.3889301405442087      -0.0007274903882676       0.0004322153182591      -0.0002399892122613 0 0
C           3.9989352754933760      11.5005106697801480       0.6979810475797117       0.0002060357177464       0.0000343224301372      -0.0001873315664706 0 0
H           4.5364548137175920      12.1812991269907727       0.0952305119543948      -0.0000085556627263       0.0002101118580569       0.0000980032095763 0 0
C           3.2305333123278026      12.0176689619116743       1.7568134653127232      -0.0000311794739836       0.0002978089036648      -0.0001902629129523 0 0
H           3.2547694225305439      13.0296553402027619       1.9514832707600445      -0.0001814910393469       0.0005340115380747       0.0000942194315064 0 0
C           2.3074860497795706      11.2349768810423782       2.3933772818338372      -0.0001878920271529      -0.0000744517025236      -0.0000368232048109 0 0
H           1.6238355288665782      11.4817782240096236       3.1769287595637228      -0.0003526852926121       0.0004213797422619       0.0000761457688351 0 0
C           2.1822463494350606       9.6571321511596135       4.8567052174598144       0.0001053418764662       0.0005469765258483      -0.0002064995377778 0 0
C           3.4031739933374063       8.9247730375420335       4.9262635896605644       0.0003453344318467      -0.0000701746946165       0.0000418610643255 0 0
H           3.4844182667667156       8.0327753113792273       4.2353402547979790      -0.0006403827173943      -0.0005573433898639      -0.0001990510662435 0 0
C           4.4520781162225758       9.2943995678046374       5.7034678658382951       0.0002827846359100      -0.0002009055627449       0.0002634841687781 0 0
H           5.4202299265562814       8.7774689760712263       5.6586178809749867      -0.0015141261136245      -0.0000807117372972      -0.0006087602699138 0 0
C           4.2972464715929428      10.3161483920210575       6.5974725036321979       0.0000888541020711      -0.0000902201405109      -0.0002964704171586 0 0
H           5.0218846431834310      10.6796258507010986       7.2816323317995773      -0.0001231944491264       0.0003561319323699       0.0003637805503570 0 0
C           3.0921467512227303      11.0686504883348125       6.6068531651026072      -0.0001445080289364       0.0001209817970938       0.0000427293035684 0 0
H           2.9910994316825410      11.9536970433458194       7.2522262951657845       0.0005143994234147       0.0009748375201358       0.0007704616023249 0 0
C           2.0887637553681513      10.7212251594052592       5.7224196279097557       0.0000689656371654      -0.0000560882814137      -0.0001417942250803 0 0
H           1.0847232642696469      11.3446176635891671       5.7620274370428248      -0.0005000585474425      -0.0000823372584570      -0.0011901223059206 0 0
C          -2.3014512544897214       7.1554113056134891       3.0945419509288667      -0.0005193370171303      -0.0004075425703505       0.0002312677602718 0 0
C          -3.1137392061635194       6.3282927648644947       3.8225408348361958      -0.0001385894808224      -0.0001340342952750      -0.0000569656732414 0 0
H          -2.7377089609552585       5.7636652449802952       4.6202969377143646      -0.0014913785812320      -0.0005696281535161      -0.0006668711432863 0 0
C          -4.4861152252718055       6.2535130286874026       3.5257736566139486      -0.0003554253820441       0.0002549840219046      -0.0000477112795667 0 0
H          -5.0040403755723348       5.5140153456370307       4.1673137436785641      -0.0018622217999453       0.0000362384223688       0.0005184429139158 0 0
C          -4.9778209754761820       6.9200303352795824       2.4146364972694037       0.0002657914254623       0.0000780660240693      -0.0001441743554884 0 0
H          -6.0290004433692781       7.0189356728487802       2.1779249667084670      -0.0002988334777956      -0.0005612265563471       0.0007738986903051 0 0
C          -4.1589826070975482       7.7700749229332349       1.6822171242617516       0.0001807711910329       0.0000904033341340       0.0001895948879280 0 0
H          -4.5961851383283427       8.3586618571329137       0.9567422043662918      -0.0009393854774037       0.0009019345370944       0.0003603504778777 0 0
C          -2.8428566504931618       7.8471312371380799       2.0304050508699825       0.0002467808925613       0.0000196210844433      -0.0000862624552319 0 0
H          -2.3431690521474620       8.6035461136562787       1.5241814346447624       0.0003449061652901      -0.0002211113275629      -0.0012644722057290 0 0
Si          0.4241284269702256     -10.3902124513977387       1.8933945359619864       0.0000173797575466      -0.0000245105491707      -0.0000286674142901 0 0
C           1.7406038951515936      -9.7754642522559436       0.7485177858039683       0.0001880648826141      -0.0001547636953688       0.0000115157578875 0 0
H           2.0563509894369179     -10.2649775505761287      -0.2957812497174471      -0.0010535670700466       0.0002200674585522      -0.0007462029229979 0 0
C           2.3310145202423831      -8.6552129653133747       1.1627330349745506       0.0000937461650202      -0.0003447262182235       0.0002622678072634 0 0
C           1.9093444638017265      -8.3542349461538148       2.6115995121355513       0.0002252600250915       0.0001363073451347       0.0001070410473367 0 0
C           1.1184041472943564      -9.2219812248170552       3.1515147480591366       0.0000588916316944      -0.0001944397977233       0.0001390622978212 0 0
H           0.6126312260734169      -9.0538798808112251       4.0078547194375451       0.0011354016622098      -0.0007388085890022      -0.0006504186165230 0 0
C           0.0447301076987395     -12.2693294735721405       2.1637347879769244      -0.0001599677734291      -0.0002503318088705       0.0001563155229058 0 0
C           0.0547769264728449     -12.8438378941608828       3.4762514611084332      -0.0000593565395325       0.0001696506507103       0.0001864660699037 0 0
H           0.7385407656744329     -12.4256048890912059       4.2007861577197705      -0.0001373582129390      -0.0005359015919505       0.0000153088774650 0 0
C          -0.6580633351261184     -14.0576716103452650       3.6499928796360348       0.0001103668665104      -0.0000679543811492       0.0000555108718398 0 0
H          -0.5177383726505381     -14.6006472195893586       4.5771441721230586       0.0002716638033236      -0.0007255664582945       0.0002156603755075 0 0
C          -1.4028696309470063     -14.6040303347591696       2.5593103677408524       0.0000964348744921      -0.0001709495674998       0.0001446035056212 0 0
H          -1.8483164670917105     -15.5627804539369023       2.6689583797906042      -0.0001216594476129      -0.0016555018650077       0.0010777496289972 0 0
C          -1.4577378106827650     -13.9934703142867924       1.3439792492833380       0.0000402974914323      -0.0000803669946662      -0.0003012028885731 0 0
H          -1.8243314489918354     -14.5493352603055204       0.5226687504583420       0.0006654517002253      -0.0004702160946830       0.0014905598720174 0 0
C          -0.7169150097844409     -12.8167382020163227       1.1964162725925318      -0.0001195992317599       0.0000160808398614       0.0003721700742113 0 0
H          -0.5778014484387817     -12.4552634287441553       0.1960634028815721      -0.0002264278155598       0.0010009833661301      -0.0012867038773497 0 0
C           3.2316964252326050      -7.9160490074581125       0.2688704954735092      -0.0000690938534543      -0.0002468164084586       0.0003255021857866 0 0
C           3.9194385980998039      -8.5719445757040891      -0.7397915839500085      -0.0001102309692116       0.0000643000286084       0.0003981251182971 0 0
H           3.8494538194081440      -9.6229182770735786      -0.9571991493665416       0.0001095560155988      -0.0000031159770513      -0.0000253875128878 0 0
C           4.6710467081242584      -7.8291483507358146      -1.6652988533773196      -0.0001500053374859       0.0002582949804552       0.0000236214873472 0 0
H           5.0437285136570056      -8.3791450239146243      -2.4951692575968334      -0.0003290067296586      -0.0010053281408283      -0.0011826613419347 0 0
C           4.6196635960919927      -6.4545306434032712      -1.6220754218442344      -0.0004965450652914      -0.0000021486063125       0.0000692656997707 0 0
H           5.0496784402160007      -5.8875180102227134      -2.4242244770528334      -0.0011060143265353      -0.0003352334683535      -0.0005791871339082 0 0
C           3.8816546042315374      -5.7928501987055672      -0.6838420281918424      -0.0003935904909808      -0.0003256850306934      -0.0001897373103278 0 0
H           3.7309360362441257      -4.7249618968979172      -0.6717297727545772      -0.0010930790487301      -0.0001298363815041       0.0001412846648441 0 0
C           3.1774570112000871      -6.5349838774099656       0.2520064082918991       0.0001573473917162       0.0000503936006913       0.0001997971522328 0 0
H           2.6779291700145413      -5.9392812826005388       0.9761428036519744       0.0007461623011007      -0.0002190747987628      -0.0006992551014338 0 0
C           2.5934606514637011      -7.1387918435353210       3.1641817611117742       0.0003285431776319      -0.0000052264576978      -0.0001226357558264 0 0
C           3.8860568656860588      -7.2952543333333892       3.6915510784618557       0.0001890628573916      -0.0000025147474888      -0.0000266117821368 0 0
H           4.3137575200319036      -8.2799256343820105       3.5667469129571758      -0.0011857071927582       0.0013607247350185      -0.0009652904966647 0 0
C           4.6063419313586023      -6.2344623126149967       4.2773872809024880       0.0000200821317094       0.0001473442879111       0.0001093465769091 0 0
H           5.6603636210205117      -6.3450916764049454       4.6124858228434622       0.0002132620700591       0.0002007496338971       0.0000181669795519 0 0
C           4.0273263470769516      -4.9511190856787515       4.1821140433078652       0.0001962300553808       0.0001047891466202      -0.0001302959361863 0 0
H           4.6943322786727313      -4.0946705900991534       4.4166519408129830      -0.0001377823316036      -0.0002020250236921       0.0001119046380200 0 0
C           2.7119133059085474      -4.7588994075687854       3.8088236350098810       0.0000798538924940      -0.0003078197148858       0.0003294017716249 0 0
H           2.2443722049833825      -3.7981859247709440       3.8132437719937986      -0.0004828812357009      -0.0001338982567633       0.0006312989513003 0 0
C           2.0098050044141331      -5.8889203805153105       3.3726637952330951      -0.0001236515050282      -0.0001855847766885       0.0000877844209197 0 0
H           0.9800300152490048      -5.7991733193793369       3.2118861230379907       0.0002672142141794      -0.0003012919463440       0.0004571200577228 0 0
C          -1.2388226758686036      -9.5392297857385220       1.4845600071690472      -0.0001022010346400       0.0000182148946717       0.0000429014192699 0 0
C          -2.4347752906822562      -9.9850417368372835       2.0298344645433222      -0.0001285453037455       0.0001069187940048      -0.0000238052503259 0 0
H          -2.4588209009873863     -10.6417847631260702       2.9254036715243807       0.0000974859147497      -0.0012008446370352       0.0011533925672183 0 0
C          -3.6381260892791047      -9.5288704935841402       1.6067380500713362       0.0000666952938071      -0.0000231784648342       0.0001291838693579 0 0
H          -4.6033588061771189      -9.8401352458728297       2.1317313582534694      -0.0006588349468535       0.0010096603645079       0.0000980275184951 0 0
C          -3.7185460032644175      -8.5063424729842065       0.6596447315056446      -0.0000644744988532      -0.0001901799358221      -0.0000450743362412 0 0
H          -4.7464207690357130      -8.0151397373311983       0.4941012532166790      -0.0015506336694223       0.0005767225966261      -0.0001339249383524 0 0
C          -2.4885469194842917      -7.9823050449559698       0.1522466631132580      -0.0000747584921804      -0.0000371180436504       0.0001900919227758 0 0
H          -2.5986456128641340      -7.0855184506766795      -0.4225715964440673      -0.0008330988897696       0.0012612996506914      -0.0007122778310140 0 0
C          -1.3218514455499495      -8.5738240291409671       0.5139638768096428       0.0000967538219131      -0.0004251419673163       0.0001459873505267 0 0
H          -0.3556312401127251      -8.2736828634649378       0.0364046330698943      -0.0008849010750785       0.0001350871845232       0.0001789277748459 0 0
Si         -9.2802980249350693       2.4565821033895907      -1.3964237503487162       0.0001395597021019      -0.0000204241055224      -0.0000182085770380 0 0
C          -9.0823642354002949       1.5172569368371305      -2.9548936345547903       0.0000936869686936      -0.0000013263675949      -0.0001881545699704 0 0
H          -9.5202239579825463       1.6833342864517411      -3.9781109052093822       0.0012783627934165       0.0004692634446180       0.0007840139980728 0 0
C          -8.7774587231854273       0.2200356024549488      -2.6142526222906115       0.0000890222093768      -0.0001352923813437       0.0001010423786667 0 0
C          -8.3099086703392757       0.0948739535604245      -1.1899206157828772       0.0003764227994772       0.0000279124600224       0.0002754851907754 0 0
C          -8.5826925819373550       1.1131685937514348      -0.3957831820457232       0.0000907045424620       0.0002751893270242      -0.0003021140238761 0 0
H          -8.1593851743442869       1.2022384017687049       0.6747958962939375      -0.0008494164080964       0.0009532758314367       0.0005808939912203 0 0
C          -7.8934855488292754       3.7670507382975775      -0.9734644112042674      -0.0000645301309219      -0.0000814307922238       0.0003936439930795 0 0
C          -6.5795929046162200       3.3019168466668676      -1.1425825596922539       0.0001662524245887       0.0001565698766168      -0.0001667462987779 0 0
H          -6.5028221415462575       2.2863488583226470      -1.4487118972749611       0.0000329328331884      -0.0005336545115249      -0.0018863175733274 0 0
C          -5.5217011377345253       4.0617997016136451      -0.6850799337612838       0.0000940134381300      -0.0001521082112192      -0.0000948705828252 0 0
H          -4.5344797434731996       3.6122469380754145      -0.6307306896899907       0.0004830749323518      -0.0001587187556255       0.0000028372577777 0 0
C          -5.7399827676701562       5.3712869331160560      -0.1930076596525263       0.0001574849672917      -0.0004163528223772      -0.0001366627947852 0 0
H          -4.9490414398986973       5.9205603113449232       0.2848423556045357      -0.0000224689279206      -0.0001195303846942      -0.0011660753255738 0 0
C          -6.9909658811590836       5.8921812184263338      -0.2325522734319314      -0.0000544629397311       0.0002761539913533       0.0000162484990996 0 0
H          -7.1647123023626715       6.8734028635282014       0.2124187213577708       0.0012885752925802      -0.0000046462363369       0.0005189219206251 0 0
C          -8.0842921926825131       5.1105710221973562      -0.5527561855031887       0.0001147480104093      -0.0002462567594395      -0.0000942403032609 0 0
H          -9.1072654729883347       5.5001120361219504      -0.3763067222237419       0.0002853994254635       0.0005456756048002      -0.0006402100854179 0 0
C          -8.9552160530261613      -0.9357116354522276      -3.5109622484720235      -0.0000953977161878       0.0002953935248942      -0.0001719011407130 0 0
C          -7.9823726750919519      -1.9787857361810877      -3.5355180172960825      -0.0002142845574748      -0.0001156766550155      -0.0002196435978922 0 0
H          -7.1135376308542710      -1.8619232636379164      -2.7935235835242622      -0.0004055077636887      -0.0002905032342468      -0.0014500118821179 0 0
C          -8.0010857931118977      -2.9667522696398190      -4.4222330861331454      -0.0003323705211812       0.0002036731782004      -0.0001197917272758 0 0
H          -7.3144078487327144      -3.7869856070106240      -4.3818901510459582      -0.0003166457421126      -0.0001972818231854      -0.0006911606448486 0 0
C          -9.0401172967685675      -3.0932118657055621      -5.3463035582894385       0.0000557657435586      -0.0000141827132951      -0.0002025583946931 0 0
H          -9.0623162581999512      -3.9155597507997699      -6.0769918195696269       0.0001735426583176       0.0005353109791191       0.0016205301084466 0 0
C          -9.9608938202267172      -2.0405198834274665      -5.3598964125877764      -0.0001520083060583      -0.0001287232648751       0.0000699899740996 0 0
H         -10.6939291997285402      -2.0931197174851186      -6.1577320907677215      -0.0011529616119829      -0.0012679522573437      -0.0012675097167351 0 0
C          -9.9241911142812604      -0.9929182201103831      -4.4523125916798616       0.0000228302703176       0.0000674585331253       0.0000303198487311 0 0
H         -10.5478526516519455      -0.1391345319308898      -4.6089748357934779      -0.0003020378044092      -0.0005917030276587       0.0000161387518155 0 0
C          -7.6552841061677661      -1.2018089447571678      -0.6920264183430759       0.0000519168916204       0.0000423969491364      -0.0001407293140660 0 0
C          -6.3636952544630878      -1.0525674386097568      -0.1720874635627259      -0.0000932417133599      -0.0001577559199315       0.0002884683196459 0 0
H          -5.8772764911218891      -0.0361924579113693      -0.2974172524680150       0.0001730002346427       0.0009376339018957      -0.0004348318656136 0 0
C          -5.6360746307417386      -2.1817990293215868       0.3009892200669356       0.0001290509450072       0.0000485659557129       0.0003584977979756 0 0
H          -4.5345088597777936      -2.1463903506840500       0.6315298028750564      -0.0006727540833378      -0.0004024719216227      -0.0003438958883754 0 0
C          -6.2696208274172722      -3.4091078016179859       0.2534647580717598      -0.0000051510495135       0.0000136228588889      -0.0000967238841515 0 0
H          -5.6950000294452678      -4.2983202709590724       0.3324135446267562      -0.0001855731421885       0.0006530450058655      -0.0003961788236271 0 0
C          -7.6263150840013312      -3.5026658337804313      -0.0100033412538895       0.0001620107414244      -0.0002575723153952       0.0000555073587650 0 0
H          -8.0519015235504199      -4.5146546951382227      -0.0092105961403955       0.0001414039119212       0.0005287746630326      -0.0002417342919111 0 0
C          -8.3225652534995138      -2.4316355042796229      -0.5530947873783643      -0.0001295360702431      -0.0001958863968973      -0.0002203479867948 0 0
H          -9.4480399074234569      -2.4734180282375458      -0.8829289301326066       0.0005166137233131      -0.0003335245753118      -0.0009261642099344 0 0
C         -11.1256693558779496       3.0032575594182269      -1.5360622595828748      -0.0001193567359624       0.0001109917169145       0.0002511094106247 0 0
C         -11.6559980919168957       3.6132194379801086      -2.6574882885363187       0.0001339470356289       0.0003835974160622       0.0005553175384953 0 0
H         -11.0575891370491757       4.1403400773007366      -3.3869382674711832      -0.0002847260251291       0.0001669196861518       0.0010149709871842 0 0
C         -13.0215013427073831       3.6816656209541199      -2.9417761711702575      -0.0000842182362837       0.0001014872727234       0.0001734670758067 0 0
H         -13.3477542210477882       4.1552311449573649      -3.8410341768172760       0.0004322127672175      -0.0008685771646878       0.0026930421777303 0 0
C         -13.9126167599562738       3.0657277648095511      -2.0664163876168131      -0.0002280009705645       0.0001010151573971      -0.0004779974200546 0 0
H         -14.9172416510266057       3.1632302513160444      -2.2093006752607800       0.0002323837316595      -0.0003659573524552       0.0010303271047419 0 0
C         -13.4313993690813369       2.4600575395418556      -0.8871595824599002       0.0000608997502811       0.0000430994116793       0.0000285215315298 0 0
H         -14.1118711554630458       2.0393740597287757      -0.1688323857207473       0.0002428952976991      -0.0004835591800871       0.0002376643938545 0 0
C         -12.0507199192791656       2.3915931704660256      -0.6259848929752839       0.0001205594240445       0.0001994745585580      -0.0001488138652967 0 0
H         -11.6189689104184684       1.9268285438709829       0.2130836254691083       0.0002494574363311      -0.0002606037111514       0.0010209507488475 0 0
Si         -7.8370442294261782      -1.7351275781707489       4.0629782167548516       0.0000193020530859       0.0000199739582822       0.0004200735544867 0 0
C          -8.6211642693347628      -0.8258942582820854       5.5091950278047355      -0.0000788308939279       0.0000227040154564      -0.0002580779663874 0 0
H          -9.0493344555851092      -1.3886982063071758       6.3217688262233880      -0.0007648397250360      -0.0026353445162304       0.0012584759176243 0 0
C          -9.1127375795912187       0.3018377871717516       5.1314464841681593      -0.0002054407216157      -0.0003621498628423       0.0003603653582420 0 0
C          -8.6048481702638799       0.7874027895481664       3.7802505205580017      -0.0003067836335659       0.0003069187564808       0.0002041193404610 0 0
C          -8.1735254653281189      -0.2388947593082170       2.9648197020721510       0.0000858133245105      -0.0002674745791184       0.0002619190413891 0 0
H          -7.7837162013229895      -0.0256996991431774       2.0260464791302182      -0.0004653794670692       0.0000149013968140      -0.0006360608004237 0 0
C          -8.8928129038985322      -3.2843157096513904       3.7487441166998714       0.0002970749862581      -0.0002779593655403       0.0001132129446846 0 0
C         -10.0421414400113367      -3.5400520827772066       3.0386365727013533       0.0003802723340416      -0.0002031602790120      -0.0002005076278713 0 0
H         -10.6045666703406631      -2.7003544781791073       2.6811241120249814       0.0000521875971829       0.0005526283718427       0.0003974920091427 0 0
C         -10.5886992124798738      -4.8030315631102409       2.9414348900995346      -0.0002376684831978      -0.0000525940881014       0.0001318198830036 0 0
H         -11.5294660855297888      -4.9496590290490223       2.4677943734777963      -0.0008304242004822       0.0004319868028632       0.0010212378541406 0 0
C          -9.9853541545522813      -5.8232315737016647       3.6359798195245916      -0.0001890929399343      -0.0003335005821467       0.0002184233239442 0 0
H         -10.6065748520925052      -6.8045354386396397       3.7648023833610433       0.0017967849234860       0.0018620561666483       0.0002919409388181 0 0
C          -8.7468623512976880      -5.6279418428163366       4.2329657601421022       0.0002705050934503      -0.0000400922029767       0.0000707228089834 0 0
H          -8.1811410573838614      -6.4066114310469917       4.7995866796974260      -0.0001845062230112       0.0008877589466918      -0.0009976146087517 0 0
C          -8.1791385487704229      -4.3541299609689652       4.1997750974035393       0.0000685061765221      -0.0000847987819988      -0.0002632257204136 0 0
H          -7.2636815155896359      -4.2193897793220829       4.7651988430192471      -0.0016622768620473      -0.0013881461590877      -0.0005594615969684 0 0
C         -10.2311594576727067       1.1532640516500603       5.7032954850215685      -0.0000088971543575       0.0000704096791127      -0.0003371695580498 0 0
C         -11.5039085945580766       0.6114730354121831       5.7786367275922617       0.0001869796696006      -0.0001998572689063       0.0000606881296239 0 0
H         -11.6458815954288308      -0.4325000781536010       5.4147091032931138      -0.0000447080936278      -0.0004397661830244      -0.0007754785750681 0 0
C         -12.5316057893674699       1.3990779996647724       6.2805346472109624      -0.0000413318493446      -0.0002345621633386       0.0002472140706159 0 0
H         -13.6097220468346816       1.0230098948265112       6.3633377491681715       0.0005957061481435      -0.0001104851101756      -0.0013716379302486 0 0
C         -12.3108065513761513       2.7584341212628170       6.4855899017479102       0.0001248020711453       0.0000945937437793      -0.0001045084490066 0 0
H         -13.1667907195732923       3.3757397870628885       6.8017409304986334      -0.0008905800309167      -0.0002962530023420      -0.0014409065498062 0 0
C         -11.0507185129199321       3.3235745527365457       6.3262208491313485      -0.0002027446048708      -0.0000501231321125       0.0001692410132140 0 0
H         -10.9864216266216861       4.4462077911256692       6.4613771133379716      -0.0002130059763679       0.0007649542862984      -0.0003871106782220 0 0
C          -9.9942940548639907       2.4668147048679101       5.9479770240060503      -0.0000731666670361       0.0002899728513626       0.0002182233242009 0 0
H          -8.9496948209304445       2.8850774715565612       5.9534173496778795       0.0005229936157598      -0.0002334366966021      -0.0001973093107329 0 0
C          -8.9062471192172268       2.1716746541780738       3.2205871996950619       0.0000253514938764      -0.0002433777327328       0.0001873322523873 0 0
C         -10.0930425575472764       2.3828462190622450       2.5810006961449976      -0.0003293061333699       0.0001113950792415       0.0000323436849407 0 0
H         -10.8737914915528968       1.5518520162391738       2.5740083626160173       0.0002271385208085       0.0007218833327689       0.0000480701277529 0 0
C         -10.3835596499142397       3.6006007124969566       1.9993899442978547       0.0001275796980930       0.0002158488347762       0.0002648409256345 0 0
H         -11.3267459369370389       3.7640434104532656       1.5490819711887196      -0.0004227580032804      -0.0001758398095843       0.0001841230801452 0 0
C          -9.4711030869685864       4.5989120082397781       2.1171807122334303      -0.0000544302070242      -0.0002234121312150      -0.0000868054424055 0 0
H          -9.6738719152992054       5.6182349468691921       1.7100099984521624       0.0008262529411040      -0.0004812752934275      -0.0006378218430517 0 0
C          -8.2445043224309806       4.4077172657546333       2.6728104931839782      -0.0000897196295699      -0.0000993572951492       0.0003385165824469 0 0
H          -7.4989034075060612       5.1346952406758311       2.5754370698642757      -0.0009046125643124       0.0005663370794683       0.0007004940798883 0 0
C          -7.9334968843269502       3.1467649192165998       3.2244873935885123      -0.0000485992812143       0.0002685023184956       0.0000468790864955 0 0
H          -6.9007343995773942       2.9120234322431200       3.5712339380524836       0.0006425230174220       0.0005393862617247      -0.0001515007161250 0 0
C          -6.0547817353591160      -1.9322552942372919       4.4885176330490886       0.0003224307146489      -0.0001947360274743      -0.0000042136902867 0 0
C          -5.1780507083415257      -2.7859535736656338       3.8720071458214966       0.0002380180697468       0.0001820055727377       0.0001693754679063 0 0
H          -5.6507338400487352      -3.5497274869896107       3.2905506652008021      -0.0009148921400733      -0.0011804517994868      -0.0007514202398342 0 0
C          -3.8271824163153236      -2.7592328243854958       4.0706897247683367       0.0003012874531768      -0.0002214568038152      -0.0000889413776364 0 0
H          -3.0955278446645758      -3.4963763967178862       3.6340491485665409      -0.0003075424638282       0.0010957939315543      -0.0003386869948382 0 0
C          -3.2553239234172522      -1.7242628116680212       4.8309944923654777       0.0001980528483884       0.0000078218892135       0.0001494539054934 0 0
H          -2.1657433649650777      -1.6354851819767384       4.9158169228421009      -0.0009418581088175       0.0003642675763548      -0.0000414037138651 0 0
C          -4.0640377092016475      -0.7957667371320307       5.4978248160359922       0.0001108684622106      -0.0001374494562900      -0.0000448279431845 0 0
H          -3.6996515562293983      -0.1252509701850986       6.3186448929035226       0.0003255943760638      -0.0010496456960809      -0.0000315376061104 0 0
C          -5.4392179579886148      -0.9649328132054822       5.3581427206528973       0.0002245399178320       0.0000677500297935       0.0001907174319135 0 0
H          -6.1538835715648181      -0.3435202515690220       5.8581598084839088       0.0001119900149743      -0.0001518210514791       0.0003560588203814 0 0
Si          8.4670755201549710      -4.2803613907577320      -3.0985827306863989       0.0002969037370402       0.0000830339830285      -0.0000130494356923 0 0
C           8.1317059009461499      -3.6239514460725992      -1.3712320220364573       0.0001617483424838       0.0002012864057735      -0.0005460469634717 0 0
H           7.6551931159542281      -4.2138289304500143      -0.6922498250606870      -0.0004183067355869      -0.0013409508621512       0.0004987697664745 0 0
C           8.1995853668611645      -2.2700678137589394      -1.3242623975154117       0.0001132949452229      -0.0001344099376673       0.0001618418666930 0 0
C           8.6780951841864820      -1.6149096088188790      -2.5517658800782081      -0.0002631868917027      -0.0001016664817304       0.0000200675026207 0 0
C           8.3967011104618887      -2.3231783046441552      -3.6230979141312512       0.0003756179276846      -0.0000853127233633       0.0000587900718260 0 0
H           8.6965391946361201      -2.0874586314732198      -4.5890536279383296      -0.0006782562616248       0.0001974442079257       0.0000062459998416 0 0
C           7.1405357061926962      -5.3023081238157115      -3.9630893064838384      -0.0000121914931467       0.0000317840032897      -0.0001603005681565 0 0
C           5.8602030899280990      -4.8641086136472227      -4.2894261324894929       0.0002736183536430       0.0000358997898871       0.0004150594469691 0 0
H           5.5448060330233249      -3.8547435511845225      -4.1049213386231180      -0.0010094003528971      -0.0018181108839093      -0.0002686059572125 0 0
C           4.9294968684891867      -5.7669239784854494      -4.7623530750122489      -0.0001085242106767       0.0000209796090121       0.0001798360656175 0 0
H           3.9313415224043653      -5.4027492979246867      -4.9504620423872145      -0.0001875043688093      -0.0008781881505041       0.0006675441490664 0 0
C           5.1947237668548905      -7.1200568674971167      -4.9098424822379236       0.0002903722924209      -0.0000182179861723      -0.0000988431781494 0 0
H           4.3678597404767938      -7.8610593969389830      -5.3210817454432338      -0.0004324586514914      -0.0002792306959088      -0.0006756065931586 0 0
C           6.4654920213616585      -7.5719012240267469      -4.5374753154263354       0.0000169543170628      -0.0002078497054658       0.0000850496794442 0 0
H           6.6263766086078659      -8.5932610679541206      -4.5524036401752959      -0.0008790062600855       0.0000477924916166       0.0000210773914652 0 0
C           7.3932712761290746      -6.6408921973911008      -4.0254968801425850      -0.0001534629342578      -0.0001307051065317      -0.0000097345935610 0 0
H           8.3896732837120993      -7.0738375824847433      -3.6520718111005941       0.0009112171645291      -0.0011808305556971       0.0002680714425436 0 0
C           7.8635470579950599      -1.4805014384486406      -0.1515225129104173       0.0000701775700301      -0.0002744871494960      -0.0001891574321580 0 0
C           6.5669023511210680      -0.9774691455946775       0.1524130175808602      -0.0000277348938784       0.0002433604670580       0.0002193095996633 0 0
H           5.7702882336764123      -1.1006460225341814      -0.6718465614368799       0.0004941754580659      -0.0004366530852994      -0.0008247395072992 0 0
C           6.2541711401391415      -0.4262748512931677       1.3725196063105176       0.0000036157818447       0.0001421867285224      -0.0002163028257056 0 0
H           5.3181904546420276       0.0294470106374509       1.4232302441688245      -0.0008486449063290      -0.0002524428263534      -0.0001069857656434 0 0
C           7.1814868252657567      -0.3988244066948041       2.3574229047143520       0.0000114906806295       0.0003312797024269       0.0002781486354001 0 0
H           7.0020004028249749       0.3229066304251972       3.3213099360169043       0.0003737680915685      -0.0006944490764541      -0.0016441169044825 0 0
C           8.3987065217390100      -1.0413050354768776       2.1901772700260405       0.0000756340075626       0.0001383302168391      -0.0000844184621188 0 0
H           9.1633035876329814      -1.0536467045803650       2.9883168996807474       0.0006536606507495       0.0002681444195394       0.0005798485942658 0 0
C           8.7502878450715595      -1.5129718396120693       0.9316213899951107      -0.0004084056904618      -0.0002106759913219      -0.0001345117176141 0 0
H           9.6808130974139885      -1.9696857338752249       0.7225846204942815       0.0000858428698527      -0.0001324246903795       0.0004533976469300 0 0
C           9.3927699777184603      -0.3292272741778642      -2.5956673068340730       0.0003578369285999       0.0000237235333892      -0.0001563305922980 0 0
C           8.8639583297914992       0.8303923006065411      -3.2503669725518054       0.0000143871987806       0.0000757350678996       0.0000749929647201 0 0
H           7.7635128044670232       0.6659920844833417      -3.4721745301242541      -0.0001232719738871       0.0003383791485535      -0.0002503665838337 0 0
C           9.6272066016381324       1.8890566459079203      -3.4108897610708668      -0.0000173412015458       0.0002154652237399       0.0004275084110812 0 0
H           9.2376558737352781       2.7882154369317447      -3.8077026355705370       0.0002750824170652       0.0000350400061009      -0.0002249996435568 0 0
C          10.9477761172872565       1.9039123204727157      -2.9981010844028946       0.0000483230734277       0.0000681145434669      -0.0000794057130431 0 0
H          11.5557018650544094       2.8175682736431713      -3.1559360083668446       0.0006163062010264       0.0008289484156527       0.0003754346884996 0 0
C          11.5170420037988883       0.8057765927011893      -2.3184322645384570      -0.0000061929994798       0.0000791361991552      -0.0000510903745903 0 0
H          12.5166208364032379       0.7449345279625752      -1.9414386079756099      -0.0011946700413847      -0.0013127286462055      -0.0003909808471273 0 0
C          10.7221938483948165      -0.3120539086255691      -2.1434239667233843      -0.0000372200556708       0.0002473147617465      -0.0002005915335291 0 0
H          11.0969261037078226      -1.2628149500839794      -1.5880683698031486      -0.0002861130772228      -0.0000931158037366      -0.0006642410611522 0 0
C          10.2980012198002147      -4.7269962646110368      -3.3263215712881529       0.0000174489306284       0.0001655436023388      -0.0002380389819587 0 0
C          11.1273072199971406      -5.6306551772006843      -2.6298590740378556       0.0003383134860459       0.0001476846554040      -0.0001369085467104 0 0
H          10.6511226025270815      -6.1773857180169385      -1.6925733122950328      -0.0007399413581883      -0.0004631884766006       0.0010559105428565 0 0
C          12.4848577061285830      -5.8040487494859843      -2.8834089957720646       0.0004243433086794      -0.0000374258250473       0.0000202401884460 0 0
H          13.1113825091977638      -6.3816470513269170      -2.2421516107620048       0.0010894938274301      -0.0001214693169999       0.0002828495318660 0 0
C          13.0957814088951388      -5.0213913866304818      -3.8583625509522905       0.0001460291004423      -0.0003651422597176      -0.0002045281987827 0 0
H          14.1985963535873019      -5.0691027546399772      -3.9273967986623144       0.0004769632633185       0.0006334581138867      -0.0000618917426942 0 0
C          12.3207238690491767      -4.1142217295669790      -4.5700492351376534       0.0000226061414988      -0.0001051232133340      -0.0001550017809485 0 0
H          12.7925560720983018      -3.2950698943632353      -5.1428362298316124       0.0008723003160944       0.0002893869097801      -0.0006612399803566 0 0
C          10.9637016167088213      -4.0095095189303196      -4.3102483738688182       0.0001067088481398       0.0002181550502637      -0.0000581699548030 0 0
H          10.4291502778069223      -3.2200649463935602      -4.7110157169651403       0.0002846428820268       0.0013095841881651      -0.0009868252916303 0 0
Si         -5.1291941704405710      -6.8852965329915028      -4.0399844329219254      -0.0000299501924407      -0.0000738770734836       0.0000172268610736 0 0
C          -6.3470135049344858      -6.7588954279001463      -2.6124640896182991       0.0001678563992229       0.0001144299908591       0.0001478027002813 0 0
H          -6.8240805216289937      -5.8696406793938314      -2.1946653673952485       0.0011832096521424      -0.0013035983086677      -0.0011050047267871 0 0
C          -6.2935227102504818      -7.9203635599905660      -1.9108555089651456       0.0000599884590300      -0.0001744795667632       0.0002183679504384 0 0
C          -5.3140806574046344      -9.0042044437313287      -2.5256633667520441      -0.0000459430505640       0.0000867080005662       0.0002481053573111 0 0
C          -4.5573745722360535      -8.5727964695297416      -3.5433684016046412      -0.0001453899365450       0.0001818561008162       0.0000917768118023 0 0
H          -3.8051712138884630      -9.2120614185966510      -3.9443158766964199       0.0004289983659535      -0.0008319015008908       0.0002107847308814 0 0
C          -5.8086507625148815      -6.9965558939067405      -5.7914397162969928      -0.0001328639347875      -0.0004342579790182      -0.0001012471277623 0 0
C          -6.1362025439122183      -5.8078846764596399      -6.4392237712483835      -0.0000908637644760       0.0001495026032753       0.0000982239090370 0 0
H          -5.7352142286136463      -4.9240300222028122      -5.9847909700965802      -0.0003864613548757      -0.0014844253027099      -0.0012729755629898 0 0
C          -6.8801012703927178      -5.7441554887640995      -7.5859099501118603       0.0001556023784028      -0.0001910903420741      -0.0001238901285746 0 0
H          -7.0340469978052624      -4.7965667866762338      -8.1723917160266222      -0.0006728172424458      -0.0002900915807965      -0.0001303980761483 0 0
C          -7.3606858685458159      -6.9455056486656881      -8.1617376021306853       0.0000261562954256       0.0001812765185300      -0.0000802703216350 0 0
H          -8.0261609598385899      -6.8414601163835709      -9.0903772194121881      -0.0001757567208408       0.0001242142301496       0.0001429233227398 0 0
C          -7.0026270387790639      -8.1400843407745498      -7.5357908591572258       0.0001546488683367      -0.0003049814317892       0.0000118163523950 0 0
H          -7.4313614914124004      -9.0590551287019601      -7.9022671614752511       0.0002963775443279       0.0010761710648553      -0.0002985311613448 0 0
C          -6.2495449955218954      -8.1473675351997237      -6.3860206876154750       0.0001726739853848       0.0001000028374366       0.0003819833551758 0 0
H          -6.1002553387669920      -9.0669390692342606      -5.8937191372308337       0.0003398631898998       0.0002569359197105      -0.0005737490284999 0 0
C          -7.0271041434916262      -8.0823270267959675      -0.6193566598607622      -0.0003311241599271       0.0000707665121836      -0.0002892629755490 0 0
C          -7.0450507624294332      -6.9545532088068418       0.2483283196433562      -0.0000767236474220       0.0000455497550802      -0.0001110319341381 0 0
H          -6.3671590017499389      -6.1843038671427735      -0.0861065815861754      -0.0001455610567291       0.0002795301943665       0.0003885766572368 0 0
C          -7.8627945226706721      -6.9113839801856702       1.3376015467422055       0.0000340298538578      -0.0001701880516976       0.0001237908826014 0 0
H          -7.9193050306741704      -6.0946689964137821       1.9413963572874429      -0.0005391779149727       0.0008848855610067       0.0000686654750466 0 0
C          -8.7299646215183753      -7.9822538004115264       1.6048254156526096       0.0002173560123432       0.0000998312893327       0.0000417558600605 0 0
H          -9.4553407134416609      -7.7793761614144978       2.4316207917258987      -0.0012452024493191       0.0007878757579170      -0.0008969468485751 0 0
C          -8.6444654601196671      -9.1558520295142838       0.8365757028908816       0.0001686600497297       0.0000439102782496       0.0003486640010543 0 0
H          -9.3110394925417150      -9.9122961967226502       1.0036030421329711       0.0005596889466565       0.0011563190124763      -0.0009845568296846 0 0
C          -7.8011135720241409      -9.1772637905395431      -0.1997070089535234      -0.0000656925235124       0.0001418004321530       0.0002617141819786 0 0
H          -7.8108534055969550     -10.1630887833316450      -0.7496144552729034       0.0002199736630346       0.0015727672158346       0.0000470906370061 0 0
C          -5.2221255067197303     -10.4235295278812448      -2.0193096399829571       0.0003187681886316       0.0000428528755833      -0.0002629926078175 0 0
C          -6.3022104637137915     -11.2721885892163876      -2.0072542765501766       0.0000305841376693       0.0000213005792003      -0.0001377152428779 0 0
H          -7.3109882534447994     -10.9278408442526249      -2.2585552427506537      -0.0015925903308834       0.0012915156941601      -0.0001121213624304 0 0
C          -6.1707647172115996     -12.5780702549636469      -1.6229019317517388       0.0003182775395352       0.0000633278478313      -0.0001691411304600 0 0
H          -7.0104656637450198     -13.2563302896931905      -1.5681839681880116      -0.0006962144580880      -0.0010852663827239      -0.0004861312734837 0 0
C          -4.9208610609905552     -13.0613395272342103      -1.2997628476222283      -0.0000544228448554       0.0000482898478746       0.0001045056401627 0 0
H          -4.7473233856321491     -14.1180993168715752      -1.0117857295072503       0.0001835817986593      -0.0001729282628632      -0.0001780034502160 0 0
C          -3.8434699624863278     -12.2212864466647879      -1.2544063977461466      -0.0000752534033069      -0.0000326739498996       0.0001582387077615 0 0
H          -2.7897062756680446     -12.6050986252200250      -0.8872264519594032      -0.0007162890639056       0.0002107109643734      -0.0001851571229150 0 0
C          -3.9674694293569859     -10.8404224003564202      -1.6813003762140586      -0.0004222950679618       0.0000417441007449      -0.0001758976315343 0 0
H          -3.1632965214039865     -10.1373357869653908      -1.5734820781834289       0.0009920361143779       0.0003757219350858      -0.0005716975746218 0 0
C          -3.8702418513306220      -5.4841279950503656      -3.7389682190796969      -0.0000323763940622       0.0001337261336238      -0.0000942895759964 0 0
C          -3.1592705139445543      -5.0497996549374697      -4.8567979034361501      -0.0001603801854798      -0.0001044285279647       0.0000342525769007 0 0
H          -2.9859561303326085      -5.7311990455758473      -5.7643642202484555      -0.0011165900200260      -0.0002759361694999      -0.0005502885188841 0 0
C          -2.4273250895364860      -3.8861121948748507      -4.8039173123523300       0.0001174974517486       0.0002886434355123      -0.0001531564502451 0 0
H          -1.8363464559574885      -3.6120290534452866      -5.6414180897771757       0.0016438052742624       0.0014054455855954      -0.0015596676564347 0 0
C          -2.3532285859441067      -3.1641122290966384      -3.6719631435344673       0.0002231326054968       0.0000673952112370      -0.0000000265251462 0 0
H          -1.6892366698205088      -2.3787921116589033      -3.4700034944453728      -0.0004051022900294      -0.0011929993931449      -0.0004074926584096 0 0
C          -3.1169812000802408      -3.4959922460703652      -2.5871403977714196       0.0001985004630696       0.0005012935931136       0.0001867625563897 0 0
H          -2.9927708316655943      -3.0165100335102792      -1.5386238747811556       0.0005557607501115      -0.0011115955422884       0.0000612389637328 0 0
C          -3.9538184648382124      -4.6397503958872264      -2.6002870015717199      -0.0001890158541441      -0.0001367178539682       0.0000592545158222 0 0
H          -4.4697170338650238      -4.9896626564818591      -1.6695587843872923       0.0002947420175150       0.0007367032621373       0.0000704334508022 0 0
Si          7.1812912665931998       3.7463699225756648      -1.4195410731394575      -0.0000566762056620      -0.0000331995243094       0.0000337294171593 0 0
C           7.3776200597059240       4.4090245159799748      -3.1547430178523919       0.0001592451677997       0.0001125232391445       0.0001546095370966 0 0
H           7.4704554373989156       3.9289048052073960      -4.1452341756132345       0.0005986808167351      -0.0008617710678698       0.0000397479292930 0 0
C           7.6676680961523678       5.7284063638127103      -3.0058979307642852      -0.0001408313469470      -0.0000605488777455       0.0000667834232885 0 0
C           7.5659930478299025       6.3079389179608052      -1.6372203296130969       0.0002255729634225       0.0000031629519838       0.0001458463774005 0 0
C           7.2868018216958363       5.4507064088937671      -0.6919216316549118       0.0002342186358424      -0.0000097806587088       0.0000231642931776 0 0
H           6.9741134521524497       5.7586237199970327       0.3638266015102762      -0.0008217001913524      -0.0000860133980619       0.0001004117955979 0 0
C           8.8240667349824928       3.1376598458293103      -0.7655266704052095      -0.0001057829556255       0.0000862178173752      -0.0000833944205352 0 0
C           9.9461311357032276       3.9492068485708725      -0.8107710648279204      -0.0002235763200545       0.0000715065736039      -0.0000551989369240 0 0
H           9.7590819975069731       5.0103215572306707      -1.0354079022127292       0.0003529439731037       0.0002198147303870       0.0006066707266179 0 0
C          11.1772362647191645       3.4794912991869031      -0.2499650776927957       0.0003902274689331       0.0000165494482776       0.0003806392871454 0 0
H          11.9146488367991150       4.2150838908507184      -0.1088626102401511      -0.0003867660665572       0.0006512104621564       0.0007482085647238 0 0
C          11.2690644244951805       2.1895386937893555       0.2243438561458772       0.0002090420486121      -0.0001169985820092       0.0001481668056159 0 0
H          12.2096740289934065       1.8758362164576670       0.8098381040350624      -0.0003999559856721       0.0005330500688027      -0.0001527034760158 0 0
C          10.1570759537079525       1.3540600733165913       0.2539344672032031       0.0002169312087987      -0.0001167821062992       0.0001185697851976 0 0
H          10.1565695447547100       0.3356849669304456       0.6839360471113710      -0.0001731119330990       0.0010898057807445       0.0004715871707533 0 0
C           8.9630546315661856       1.8421993461362185      -0.3120909781980101      -0.0000322566698886       0.0002099661829611      -0.0001906643317548 0 0
H           8.0089781110463214       1.3176229309938412      -0.1342064772783879      -0.0014722447783408      -0.0004857992462023       0.0005130726999795 0 0
C           7.9566832429096097       6.5291177352786969      -4.1815367669674099       0.0000498088258602      -0.0002622311266849      -0.0000076844090307 0 0
C           9.2577009921458000       7.0811357506841244      -4.3528563020067210       0.0000280961977406      -0.0003215684701179      -0.0002280604715420 0 0
H          10.0372056507263760       6.9012959989661713      -3.6473471636823747       0.0013733371104362      -0.0001522175980722      -0.0000144462702534 0 0
C           9.5756724757098990       7.7550690257574617      -5.5042207113248791      -0.0002708968803777      -0.0000606361225808      -0.0000987643627625 0 0
H          10.5655354352620510       8.0886125177490324      -5.7203041880854668       0.0005454379652162      -0.0000731157538071      -0.0000843086079136 0 0
C           8.5927804493091209       7.8440513181822915      -6.5147625139858034      -0.0000543737403275      -0.0000928325510544      -0.0000955019288496 0 0
H           8.9461704083000626       8.2533337261811521      -7.5293495215906017       0.0005536180839145       0.0001167711316960      -0.0007390112655074 0 0
C           7.2866069043616610       7.3497673680500357      -6.2954453492604729       0.0001133803831162      -0.0000278232577167      -0.0001519753744987 0 0
H           6.5611705755209986       7.4662744232613516      -7.1720486801454033      -0.0005306949713729       0.0009639110059788      -0.0001428374667922 0 0
C           6.9980936395557682       6.7313868842440030      -5.1327058880371901      -0.0001373100469642      -0.0001764271262542       0.0001788110397737 0 0
H           6.0724953591104214       6.3681823350906042      -5.0144107857225375      -0.0006923538074110      -0.0014327639638736       0.0008949921027356 0 0
C           8.0153241462915332       7.7288826902647925      -1.4749187607127132       0.0001733943805506      -0.0003348992064455       0.0001756608843317 0 0
C           7.1856033928594769       8.8627620253597552      -1.1560846318943672      -0.0001970660364226       0.0003353114095855       0.0002999628646183 0 0
H           6.0852708751118572       8.7574722835932555      -1.3801931736104485      -0.0008820510029117      -0.0003077211960434      -0.0000446698749821 0 0
C           7.7131938027201503      10.0305826670244880      -0.8074732837346987       0.0000016784936283       0.0000865763255516       0.0001127805740862 0 0
H           7.1919938340070644      10.8765553310233170      -0.7481792736046277       0.0009197980061378      -0.0011956284880322      -0.0010217506483282 0 0
C           9.0849388802518796      10.1412739942042158      -0.5917312512158438       0.0000576836699161       0.0001111140782637      -0.0002380231569796 0 0
H           9.5356471609422666      11.0742255514683361      -0.3861998041338334       0.0008253621439669       0.0004479968621553      -0.0003956823010381 0 0
C           9.9565296935166536       9.0508497125849487      -0.7746899883728644       0.0002750864544304      -0.0001271313095505       0.0003147977202543 0 0
H          10.9904044012997133       9.1699789143980706      -0.5706025674991418      -0.0004481740229523      -0.0002636036979875      -0.0005863975557000 0 0
C           9.4291939196598786       7.8720084386822089      -1.2624531404901753       0.0001214289083210      -0.0002569073775801       0.0002057035686697 0 0
H          10.0202586346021238       6.9868716611990322      -1.4580789868945174       0.0000977432135899       0.0007500716849482       0.0004232931785979 0 0
C           5.7255928713666000       2.6647156924291870      -0.9614326337594583       0.0000646644033671      -0.0005596648112028       0.0000425178868182 0 0
C           5.1192182015681347       2.8594122753325117       0.2730238134960432       0.0000823759695775       0.0000310335968382      -0.0002195383772106 0 0
H           5.5666313654834170       3.7519356226698464       0.9192701353889000      -0.0005159190078932       0.0006260899621454       0.0008340863752537 0 0
C           4.1131044569580135       2.0378698499966275       0.7759958328117320      -0.0000364862336654      -0.0003836395253700      -0.0001674183254985 0 0
H           3.6287884706929332       2.2852893704464687       1.6947845657349314      -0.0002759453354485      -0.0003040039794116       0.0001486471399065 0 0
C           3.6227719222434640       1.0407941612878262      -0.0285425288491127       0.0002540302386986      -0.0001692239752654      -0.0001314128672687 0 0
H           2.7955162498986579       0.4178455248882093       0.3241571249453573       0.0002971447733880       0.0011736791198204      -0.0004470854409338 0 0
C           4.1950416974990032       0.8365522579613106      -1.2782706048800745      -0.0000596194460835       0.0002586830569583       0.0000733677930215 0 0
H           3.8482105028558609       0.0287249297723549      -2.0102736835532031      -0.0016002912435172      -0.0008043105404497      -0.0004621370526547 0 0
C           5.2144235345964347       1.6151627226811445      -1.7121754157418099       0.0000358620878573       0.0002869084311175       0.0002350000719049 0 0
H           5.6666820058606664       1.3428619514808404      -2.6294834517285803       0.0002979389758932      -0.0010648818472141      -0.0012722422893123 0 0
Si          0.7150481821340319      -6.4943754610828313       7.7385803081114464       0.0001155154064440      -0.0000126566640041      -0.0001097502234340 0 0
C          -0.7209318711492103      -6.7065488122399275       8.9643676440660123       0.0001259809288791       0.0002026999620680      -0.0000613150354988 0 0
H          -1.0461802092307104      -6.0015488274057542       9.6199765654023661      -0.0000113147952108      -0.0002317318338126      -0.0015042301760445 0 0
C          -1.2833639069540899      -7.9213528862597657       8.7044013690400668      -0.0006343912720861      -0.0002188222335915       0.0001916336356588 0 0
C          -0.7350533343641054      -8.6961342467364933       7.5982387850948347      -0.0001638021289106       0.0004455739282158      -0.0000329325605926 0 0
C           0.2840748648633381      -8.1531146389167422       6.9241959690649511      -0.0005858075016346       0.0000467795704897      -0.0001631195033678 0 0
H           0.7812399747112142      -8.7296445914844476       6.0808634016321985       0.0003778735891956      -0.0015735457661631      -0.0010776300092335 0 0
C           0.5056191938711276      -5.0645907896604490       6.5146389005283112       0.0001777602330418       0.0003315722411616       0.0002843389112100 0 0
C          -0.3320450267610018      -4.9360993683629610       5.4447370477210626       0.0003532118526753       0.0001061753823643       0.0003931217284996 0 0
H          -1.0547385501427669      -5.7628727188801738       5.2303867849659298      -0.0011946081969734       0.0006867708009785       0.0003806931822152 0 0
C          -0.4702012775038275      -3.7993224914213113       4.6782941382482646      -0.0001696537502168       0.0000492924474336       0.0000734694946151 0 0
H          -1.2640379673183124      -3.7855046325333674       3.9279123832486862       0.0008207316917236       0.0003262805726366       0.0008922224040974 0 0
C           0.2845582103196794      -2.7014726367123951       5.0073983751834481      -0.0000238835180784       0.0002462875850732      -0.0000802080232203 0 0
H           0.2736418839613635      -1.7629651400920052       4.4379508387654729       0.0000750471660886      -0.0014807160025401       0.0012456105495580 0 0
C           1.1302044993628382      -2.7555556619970059       6.0936946086425561      -0.0000337015108260       0.0005365573335372      -0.0002199867250785 0 0
H           1.7805313717298326      -1.8423800703257820       6.4392480948851887      -0.0006507348405436       0.0006703488457899      -0.0000631904910301 0 0
C           1.2431839755889633      -3.9087018688126993       6.9135376644122646       0.0001535162425057      -0.0001402336373096      -0.0002661151096736 0 0
H           1.8923062233621275      -3.9727354963400092       7.7489762998235916       0.0007820992172619       0.0006620546745556       0.0004467129391934 0 0
C          -2.6012604756583451      -8.3023857202370692       9.3320117668771019       0.0000600877897329      -0.0000365029452921       0.0000198315367211 0 0
C          -3.7247192625313783      -8.7615076786273871       8.6542657174983209      -0.0002227016058768      -0.0001549926618718      -0.0000662122586390 0 0
H          -3.7374661672037246      -8.9749534620745290       7.5526266915563891      -0.0005084704807064      -0.0001363996004499       0.0007891454176224 0 0
C          -4.8889495787469395      -9.0068865575387100       9.3957905983096168       0.0000157780294083      -0.0000275034948983      -0.0000784534950743 0 0
H          -5.7691469009451515      -9.4805366139754348       8.8061812365703265      -0.0002817168083357      -0.0004941711464074      -0.0000702099100772 0 0
C          -4.9802849582530122      -8.8645280286857400      10.7400706777581565      -0.0001722450835847       0.0000117081633444      -0.0002650547908436 0 0
H          -5.8134720743079651      -9.2375066438641760      11.3098413923088419      -0.0008952980817894      -0.0004578447628371      -0.0006984615208913 0 0
C          -3.8925559649097772      -8.2479286690661322      11.4041517352400792       0.0001568658808595      -0.0000534260160010       0.0000232240443215 0 0
H          -3.9257604970849438      -8.0565040805131165      12.5849202308603019      -0.0000761535234377      -0.0000005118653307      -0.0007221082813731 0 0
C          -2.7320447051662446      -8.0068545159986204      10.7052044608245733       0.0000435032399296      -0.0000539836780893       0.0001098647707678 0 0
H          -1.7982360184561246      -7.6541990910746440      11.2484479402746445      -0.0012164166164081      -0.0008173035891797      -0.0009955733672390 0 0
C          -1.3087667572833142      -9.9946342669808317       7.2236304441010253      -0.0004348157961320      -0.0002400903055498       0.0000414842459021 0 0
C          -1.7126286303218627     -10.3193247427214416       5.9339613187957250       0.0002436850238155       0.0001575981762180      -0.0000377202097882 0 0
H          -1.7051138753553441      -9.5729997856566733       5.1806448833543248      -0.0004681068977721       0.0013597165015679      -0.0008258583472615 0 0
C          -2.0569361003864644     -11.5861598826125860       5.6135650235713319      -0.0000488073895683      -0.0003591406726811      -0.0002635586578700 0 0
H          -2.1279558206707181     -11.8781418092851219       4.5708340685761844      -0.0002778039584808       0.0000553801100466       0.0010266883586565 0 0
C          -2.1442817980481901     -12.6073964657000559       6.5920603483032805       0.0000516861702554      -0.0001787160474227      -0.0001310867319839 0 0
H          -2.4879211873924820     -13.6673495331289416       6.4561379975762074      -0.0001549417980641      -0.0005758114791986      -0.0006285447760534 0 0
C          -1.9082236104793833     -12.2279715377612206       7.9199655147401176      -0.0000376859101012       0.0000169083111701      -0.0001754463212473 0 0
H          -2.1102850774937689     -12.9158421627259958       8.6890274346180263       0.0009117710963253       0.0005053541285602      -0.0004352272139734 0 0
C          -1.4374986656289273     -10.9857237751874930       8.2396994013560487      -0.0001053453290618      -0.0002337976526909      -0.0003722672562819 0 0
H          -1.0698426626375446     -10.8257351799747745       9.1974270577430453      -0.0000827446550567      -0.0002807200407914       0.0006604475775086 0 0
C           2.3199869534853006      -6.9577184629105719       8.5702719679754242      -0.0000288586921172      -0.0000208806369462      -0.0004300552433887 0 0
C           3.6077154839436676      -6.6216974682631102       8.0346457345682900       0.0001701410425532       0.0002476125680116       0.0001083692410489 0 0
H           3.6330887808175012      -5.9174140742786818       7.1314888655678628      -0.0003714669196278       0.0004023921379508       0.0008483406559268 0 0
C           4.7794994349023927      -6.8699342036503594       8.7741835550101630       0.0003233978390193       0.0000662198627863       0.0001109999526421 0 0
H           5.7230483124924563      -6.4109141571943571       8.3851480808277046       0.0010011434476744       0.0006166411634052       0.0013501885173395 0 0
C           4.7160764670249709      -7.5636291607011623       9.9563324137612863       0.0003037321384464      -0.0000790570916330      -0.0002089662846285 0 0
H           5.6066953840682245      -7.6880571451726443      10.5871474666331586      -0.0004841341843787      -0.0002204884207583       0.0000815902261086 0 0
C           3.5008571766825800      -8.0331268703912517      10.4308994959290722       0.0000996940523191      -0.0000285958147196       0.0004396426464307 0 0
H           3.3832883785038694      -8.5311812863478895      11.3945565925372847       0.0003687290016929       0.0011643109649583      -0.0006308188295420 0 0
C           2.3092093888437488      -7.7313608068764319       9.7635022242551948       0.0000212504466857       0.0002850345571447      -0.0000819948768096 0 0
H           1.2409737016387228      -7.9977821814229468      10.1511723970784189      -0.0011317576607438       0.0004480314307267      -0.0000295122893709 0 0
Si          2.5391801831372507      10.0468487003773870      -3.7555288669799602       0.0001743927969995      -0.0000327374561523      -0.0000858404551117 0 0
C           1.8507110788893362       8.8633611192011692      -2.5696149110614521       0.0000435045573639       0.0002044460512671      -0.0002699999260487 0 0
H           2.1029883173508241       8.7416919703710487      -1.4669148555007567       0.0009834685728678       0.0002048613029669      -0.0005713779596592 0 0
C           0.7880814582621528       8.2078323137119060      -3.0919271261809471      -0.0000620986795452      -0.0000525453223364       0.0002704712086514 0 0
C           0.5058626477773274       8.6309790056381779      -4.4716995728755968      -0.0000466090399495      -0.0000897979336851       0.0000425136823464 0 0
C           1.2568060695168133       9.5981172935456609      -5.0441234137845257      -0.0003376672643822       0.0001117285448225      -0.0000482005670002 0 0
H           1.1551319947310510       9.8793147043766965      -6.1119569963516334       0.0001670682520038      -0.0002068744843602       0.0010896653600930 0 0
C           2.4603459213174239      11.6652878400923754      -2.8624468665296474      -0.0002154861414064      -0.0002064400490804       0.0001514188989190 0 0
C           3.4496208267162158      12.6517470359151982      -2.8676837175625871       0.0000258121360065       0.0002706028769173      -0.0000332747249317 0 0
H           4.3004336033712276      12.5452928406212010      -3.5387361744823629       0.0006564298569247      -0.0004004602689292       0.0004494592452977 0 0
C           3.4715526318743519      13.7703618929586167      -2.0204770407571950       0.0000735951006706       0.0000029001409039       0.0000278675028942 0 0
H           4.2649304648003996      14.4072688075215360      -2.0996301834895190       0.0023320805105728       0.0002219688738799       0.0001479679098204 0 0
C           2.5097352587785702      13.9652379572529846      -1.0337544418537612      -0.0000502110156847       0.0002418337692248      -0.0002362752855001 0 0
H           2.6871904830549616      14.7472109104714679      -0.3387498696040743       0.0004102463149112      -0.0007003496131690       0.0005299358892532 0 0
C           1.5606058066527329      12.9568123021912598      -0.9881124323759416      -0.0002769984968779      -0.0000296514209563       0.0002204569419185 0 0
H           0.7747306057649496      12.9446218715873833      -0.1705719287267632       0.0015607223165132       0.0004181109590296       0.0000113542969635 0 0
C           1.4627310219659340      11.8965050538459458      -1.8392830005170457      -0.0001534980815605      -0.0000085665430618      -0.0001269212804693 0 0
H           0.6862897637520970      11.1191882704167977      -1.7033281277295100       0.0002248525650549      -0.0011347216333828       0.0008887004351035 0 0
C          -0.1381387474105642       7.3992722495430652      -2.2955499331210434       0.0002522291614317      -0.0001913116023500       0.0003046059033220 0 0
C          -1.5064139820914189       7.4885313777985401      -2.4203978387783245       0.0001963632612084      -0.0000870314079212       0.0001085336310646 0 0
H          -1.8727662388008295       8.0276854073973976      -3.1984060877174434       0.0005718040967528       0.0000875385290647      -0.0006501079463653 0 0
C          -2.3108843426378622       6.7252033128802680      -1.5882234107481401       0.0000966306887690      -0.0000510642510464       0.0000319570257457 0 0
H          -3.4367502011046405       6.8251665711864504      -1.5849780229266441       0.0003616567563664       0.0000799557976839      -0.0011389653883594 0 0
C          -1.7903881464269806       5.9164712174110994      -0.6693295868216586      -0.0003439857661023       0.0000370767350494      -0.0001251639542902 0 0
H          -2.3745909093837887       5.3138024206489503       0.0132605511070348      -0.0001512067104707      -0.0011222273802282      -0.0005275514935903 0 0
C          -0.4184357982339474       5.8693713725836876      -0.4250138903523959      -0.0001736295267124       0.0001415431114907      -0.0001510983600269 0 0
H           0.0023853299786058       5.1648372035849528       0.4049567693281075      -0.0002060951390625      -0.0005230741854491       0.0005226640054243 0 0
C           0.3824009402922232       6.5932473612783138      -1.2823267299565910      -0.0002360166900501      -0.0000536072383841       0.0000888281820198 0 0
H           1.4812879360530682       6.6391040288282017      -1.1082724607621517      -0.0008293840741912      -0.0002879349425107       0.0000003860388177 0 0
C          -0.4673947083361582       7.9459238917882269      -5.3446573839591247      -0.0002108938641038      -0.0001098718058491       0.0001661815333362 0 0
C          -1.0579008448869485       8.7208583172384895      -6.2955490501927791       0.0002019816923761       0.0000650669214368       0.0000035751728430 0 0
H          -1.1435865864977708       9.7910909324625592      -6.1990955830338521       0.0005929420113003      -0.0003843777469031      -0.0005588339242013 0 0
C          -1.8117279005925155       8.2031420376911033      -7.2698488032641571      -0.0000365850569592      -0.0000813093455938      -0.0000058259607230 0 0
H          -2.4311938689216341       8.7725045276711668      -8.0118232012726782      -0.0007269944427128      -0.0007305037946099      -0.0012407287114231 0 0
C          -1.9557834986871376       6.7820900220832074      -7.4273812623872066       0.0002102504473763       0.0001199717077076      -0.0000406054146045 0 0
H          -2.6056336866839795       6.3868558146755792      -8.1822206307286418      -0.0004570291481825      -0.0001907896507115      -0.0019538789068564 0 0
C          -1.2406495558407891       6.0267733418270923      -6.4636878581414852      -0.0003087859113424       0.0002310609534152       0.0000543946962579 0 0
H          -1.3694216328391582       4.9301796202246964      -6.5318640780073443       0.0000521294203847       0.0009327846331281       0.0001562756896005 0 0
C          -0.5224108910614438       6.5726592883294641      -5.4249194352029990      -0.0000755496286730       0.0001785809147446       0.0001933639851207 0 0
H          -0.0897254424387350       5.9087432942053164      -4.7473645017055777       0.0012000050901130      -0.0008088897353547       0.0005314219083247 0 0
C           4.3040252082657755       9.9379165201794404      -4.3181202391972153      -0.0000521125483826       0.0001129719142431      -0.0002376421968709 0 0
C           5.3808839342946371       9.9609880072665611      -3.3909147493783713       0.0001819337117395      -0.0001921375263185       0.0001404885254352 0 0
H           5.0785448240670918       9.8413964648409369      -2.3810353465422534      -0.0002842284102864       0.0000945399160226      -0.0014791469765752 0 0
C           6.6625841108334516      10.1913990194293582      -3.8173599480085429      -0.0001596403654395      -0.0002714743655470       0.0001743683147945 0 0
H           7.5310507577106760      10.1651152652581089      -3.0709788131988174      -0.0003147385389433      -0.0004314762971010      -0.0007955683080472 0 0
C           6.8391639316227808      10.4689860851711227      -5.2055239135853784       0.0003786281163833       0.0000847753328338       0.0001788878604722 0 0
H           7.8794797472384950      10.5691581083132000      -5.5111631221597666      -0.0012919547743897      -0.0011091752186546       0.0001203577136140 0 0
C           5.8015376352385672      10.4832264726240041      -6.0962536327085113      -0.0005134097150042      -0.0000005181877252       0.0000695879544693 0 0
H           6.0232261661112974      10.7582304264651256      -7.1489569482226170       0.0018216013799230       0.0003333549966145      -0.0024195775353493 0 0
C           4.5634184962434849      10.2547186335319349      -5.6320922489823921       0.0001356544800706      -0.0001353558147111       0.0003407504426240 0 0
H           3.7640292738777643      10.2061472300434026      -6.2793492784040374      -0.0000916378470620      -0.0002466553021830      -0.0008668157212550 0 0
Si         -6.4130607417540642      -0.2157236261148084      -8.2117223033276030      -0.0000352640884394       0.0000799713059734       0.0002286091754828 0 0
C          -8.1708339844684961       0.3169089404031250      -8.0833911477818976      -0.0001397326760116      -0.0003201245178710       0.0001941621641490 0 0
H          -9.0637167018732949      -0.2116140510576450      -7.8849498968849918       0.0011149948179771      -0.0000466342667254       0.0002715124167457 0 0
C          -8.0741684371065556       1.6669595220937057      -7.9940681863958725      -0.0001439616838850       0.0003684062686596      -0.0001695581819214 0 0
C          -6.7500004346530034       2.3094696833218595      -8.3230947183761028       0.0001644694108584      -0.0000551301446386       0.0000073856502843 0 0
C          -5.8250029835463755       1.4478124759693249      -8.7391749660694380       0.0000355149688564       0.0002135280943485      -0.0001467734781875 0 0
H          -4.8075967237921748       1.7103356738537234      -8.8268570961383617      -0.0001773092790256      -0.0000978422468862       0.0010590699609244 0 0
C          -6.2448598042823917      -1.7993563239251547      -9.2059035699098750       0.0000214444083764       0.0002554693749680      -0.0000908736572010 0 0
C          -5.0458722139861658      -2.3452376994763160      -9.4434896740456757      -0.0000302469670265       0.0000954905128102       0.0001529021589041 0 0
H          -4.0336277094596689      -1.7995461751744164      -9.2185247100385688      -0.0007569697844773      -0.0006977732273656      -0.0000767742241096 0 0
C          -4.8803113465053514      -3.4559184187849565     -10.2668229414313608      -0.0002672017080443      -0.0000756133621508      -0.0001002196224972 0 0
H          -3.9764817784753994      -3.8643979264746062     -10.6098778171866606      -0.0006487730831353       0.0008712033463721      -0.0000262711247574 0 0
C          -6.0078657231109895      -3.9827621677050669     -10.8760399007135913      -0.0002882593714288       0.0002112281898790      -0.0000533110227825 0 0
H          -5.8598327640713590      -4.7949106163882407     -11.6533618187780004      -0.0000024731228035       0.0002733232354991       0.0003190355442269 0 0
C          -7.2280149641587448      -3.4301248898693064     -10.6363320840399194       0.0000660631576887       0.0002807538679937      -0.0000992895231381 0 0
H          -8.0820011223017723      -3.7869507360411427     -11.2103613507992019      -0.0005670654366094       0.0000869806734205      -0.0007981987509574 0 0
C          -7.3623159986510638      -2.3009934602994062      -9.8322442220062349      -0.0000278601409438      -0.0000087916564409       0.0001234639754038 0 0
H          -8.2564616384142315      -1.7625065685249373      -9.8324570085243206      -0.0002525245295344      -0.0000844183241448       0.0000796211892386 0 0
C          -9.3311531627467357       2.5217202982194715      -7.7573739740120553       0.0001147134138001      -0.0000367416057707      -0.0002361674810593 0 0
C          -9.6723270182044221       3.4614657048940898      -8.6998635275685530      -0.0003327508171173       0.0003653779856925       0.0001836282139421 0 0
H          -9.1932266819506712       3.5703372868640582      -9.6768389256672016       0.0000852130215142       0.0000195074191576       0.0009058643372479 0 0
C         -10.8534736469107180       4.2490061803558792      -8.4388946743761508       0.0000137993047105      -0.0001608713997483      -0.0000183094932843 0 0
H         -11.1760151218225179       4.8749931660232013      -9.2268756048134577       0.0002868486753249      -0.0002125559190939       0.0011545411851953 0 0
C         -11.6650707713735269       3.9696787390318824      -7.4003351269428839       0.0001198627102297      -0.0003334048440372       0.0001061329238370 0 0
H         -12.6327816542312252       4.4139075372075656      -7.3535982665469133      -0.0010433758274050       0.0003784454892382       0.0002532723420606 0 0
C         -11.3995819487451246       2.9089327631619808      -6.5716316168203317      -0.0001728182632577      -0.0002693389395107       0.0001843668726742 0 0
H         -12.1491887509382224       2.5570717633339188      -5.9626811632552030       0.0005760568233908       0.0009693932546359      -0.0007193343831990 0 0
C         -10.2484836760880960       2.1562859936373577      -6.8130369019422696       0.0000764158604255       0.0000550149323385      -0.0002274240283374 0 0
H         -10.1873782961875055       1.1575974058973226      -6.2877382005756939       0.0010226557438510      -0.0003029650957097       0.0001395635837121 0 0
C          -6.5428326587871011       3.7421919002785344      -8.4079218315492632       0.0002159300834624       0.0001302872757810      -0.0002204537485461 0 0
C          -5.6788606150024652       4.2754275945118394      -9.3267425069645800       0.0001054572222410       0.0000446056299319       0.0000124438317208 0 0
H          -5.3500658142096427       3.6255829166768354     -10.1441179160531849      -0.0008494702946649       0.0001160050184308       0.0007870584164939 0 0
C          -5.1973133752201006       5.5962993294049479      -9.2064680049974523      -0.0002568636875804      -0.0000365950337767       0.0002581650035206 0 0
H          -4.4018297588577369       5.8517294579097010      -9.8793173077137872       0.0007612116062697       0.0008271093795066      -0.0000359855036602 0 0
C          -5.7756064114966730       6.4878290515402890      -8.3032575849393329      -0.0000641556052122       0.0000491343638896       0.0000017434552467 0 0
H          -5.6075019375048774       7.5363370898397557      -8.4411309410329167       0.0000386728651703      -0.0014259059851838       0.0001986085662968 0 0
C          -6.6009900558385839       5.9411551783589021      -7.3602864272233095      -0.0000716138733654       0.0002950352137312      -0.0001216258196506 0 0
H          -7.0262926859386390       6.5660737632811941      -6.5874284186019292       0.0002286091483917      -0.0003922311114655      -0.0005978495219395 0 0
C          -6.9975046007181216       4.6348398690001575      -7.4157482927311245       0.0001177873278859       0.0000409336511201       0.0001657427742673 0 0
H          -7.8374456201958127       4.3561107634440637      -6.6929263988079750      -0.0007797818002723      -0.0008203336235938       0.0008049674169454 0 0
C          -5.9931162548652086      -0.5424770495868129      -6.3952446810215280      -0.0001783014008565      -0.0002369494930252      -0.0000261033492389 0 0
C          -5.6264296904847146      -1.7947916842171940      -5.9870105528306627      -0.0001628825331620      -0.0000571400381877       0.0000407588554426 0 0
H          -5.8440188151982202      -2.5602490129928115      -6.6573978534338982       0.0002853371139773       0.0007114078414785       0.0005195397067486 0 0
C          -5.1171808593724979      -1.9373116791441745      -4.6752124995129813      -0.0001610034299513       0.0000222611726695       0.0002682953546911 0 0
H          -4.8746442561904262      -2.9245461927715608      -4.4404560115042493      -0.0013750151037287      -0.0004073227884277      -0.0001860171184153 0 0
C          -4.9165328004361948      -0.8115929843983271      -3.8515475794027836       0.0000546702844679      -0.0002587199338685      -0.0000381689394673 0 0
H          -4.7248197558839609      -1.0468604729525146      -2.8834684464877718       0.0001285256769366       0.0000957037376124       0.0003308463420220 0 0
C          -5.2327447463397956       0.4234604263467625      -4.3194789580367159      -0.0001589966781645       0.0005114838623957      -0.0001684314160190 0 0
H          -5.1165167878384459       1.3733540144093506      -3.8378864254922012      -0.0002977973082541       0.0003711765009514      -0.0002533415441632 0 0
C          -5.8441938522102879       0.5699998877706526      -5.5542752044933676       0.0003727625547708       0.0003552910093374       0.0002568715759719 0 0
H          -6.2703587970181180       1.4699286787252739      -6.0521407956908888      -0.0011711140014687      -0.0001422069068589      -0.0006641425122909 0 0
Si          7.9748654306630025       8.3518954180009430       4.1271217437820420      -0.0000242088350444      -0.0001667529282862      -0.0000488122225910 0 0
C           7.1457189691205008       7.2611340922240153       5.3351191190464178       0.0000133025336216      -0.0002484097791267      -0.0002558780934668 0 0
H           7.3703064521371671       7.0698508581585617       6.3091979802670961       0.0012721972229701      -0.0003862181768560       0.0010720432769548 0 0
C           6.2022325415100985       6.6116694621860974       4.6432154486046437       0.0000385183482687       0.0002170329457269      -0.0000739087768195 0 0
C           6.0608337937900369       6.9473876345796040       3.1959806826527304      -0.0000354213497957       0.0000730965689332      -0.0000773274402646 0 0
C           6.9589159164715779       7.8516081890246552       2.7804589212341884       0.0001343531179025       0.0000303225179346      -0.0000696850212496 0 0
H           7.0072046554294918       8.3107306308863649       1.8865621282436045       0.0006229247089598       0.0001379612323495      -0.0018158280029717 0 0
C           7.6463262364533815      10.1977047395098221       4.2432908153224753       0.0001291407536830       0.0000054887023772       0.0000900619731204 0 0
C           7.3100274151824101      10.8971225009773196       3.0932703815445990       0.0001478761658768       0.0001905501055273       0.0003115920297315 0 0
H           7.5557769664156256      10.4648981991182222       2.1280976546130188       0.0006976859264425      -0.0001903181215871      -0.0000898732572715 0 0
C           6.6895843792349643      12.1419262199287274       3.1232375927819778       0.0002598164818175      -0.0003248872359322       0.0000972346487802 0 0
H           6.4151202907122684      12.6270401601510116       2.3382855247842449       0.0011101419442501       0.0007525340996344       0.0000025373392285 0 0
C           6.3428616024119870      12.6739652035167119       4.3875558324991992       0.0001405522974115      -0.0000815021152540      -0.0001464547797946 0 0
H           5.6102966226922382      13.4561919984660232       4.5073757364399691       0.0001788539232443       0.0001026042150533       0.0009137966872466 0 0
C           6.6749629693862271      11.9713675275081606       5.5219574581889646      -0.0001395734575165       0.0003001994259931       0.0001000784142122 0 0
H           6.3648341459499438      12.3686938407811997       6.4520228651560076      -0.0000841605495475       0.0001465268163222      -0.0003554071765529 0 0
C           7.3005189402340598      10.7376799088421038       5.4387044266192861       0.0002259915422212      -0.0000561447774516       0.0000436167734525 0 0
H           7.3165953414601272      10.2047740199098165       6.3018611188063804      -0.0003075996002264      -0.0002080389752910       0.0005805964611521 0 0
C           5.4486444941127772       5.5496888422446764       5.3680451444039958       0.0000168496559798      -0.0001856753087350      -0.0003131114253366 0 0
C           4.3613041750811439       5.9228169541452234       6.2444440715616043      -0.0003336031542906       0.0000205450168419      -0.0000454116105566 0 0
H           4.0917630563183707       6.9427110939527683       6.3025043977908854       0.0005563797151490      -0.0005100667538201       0.0004595571718284 0 0
C           3.7708797772457352       4.9030565983073400       6.9735419783515011      -0.0003801200145104       0.0002345338666309       0.0000990035438419 0 0
H           2.9036425925622611       5.1485983064757912       7.6008515916877473      -0.0004783634724363       0.0004887943766347       0.0004028648337486 0 0
C           4.1887306873587891       3.5789245591946033       6.8867261880474198      -0.0000585058415430      -0.0002530284577948      -0.0003074411650378 0 0
H           3.7512560888966822       2.7990744916221639       7.5161058699952648       0.0000738865199249       0.0001844984318713       0.0014606200575785 0 0
C           5.1906052406619443       3.2450008741156244       5.9571382261468582      -0.0005178240375383      -0.0000100529347227      -0.0000793370703386 0 0
H           5.6028263013176938       2.2203285439369478       5.8755759883969167       0.0000852821579783      -0.0001625126607753       0.0004707479951827 0 0
C           5.7981311981047066       4.2251352474334736       5.2147555652589128       0.0000182545716991       0.0001263014532028       0.0000739661394987 0 0
H           6.5361213689786890       4.0420080386806161       4.4505277824531451       0.0021771651113876      -0.0006136298157528      -0.0005460148642674 0 0
C           5.0889128837553681       6.3689826215158245       2.2185048887604570       0.0004251195573991       0.0002513751666588       0.0000854133944156 0 0
C           4.0419029332914471       5.5598056456520641       2.6350033095018097      -0.0000356129474436       0.0000626597885592       0.0003152568348426 0 0
H           3.9121335557275221       5.2886630096649911       3.7361589423319983       0.0008121768671618       0.0000337932254858       0.0011463259418575 0 0
C           3.0629165117948149       5.1095636675200709       1.7815114196618307      -0.0002541037237419      -0.0002660827347977       0.0003583406053772 0 0
H           2.3043883828786500       4.3745432023594120       2.0845548988989631       0.0007110778553010      -0.0003383746341440       0.0011835905391537 0 0
C           3.0924539321488007       5.5256394186238253       0.4132314452429352      -0.0000334106277655      -0.0002000924445711       0.0001330565426444 0 0
H           2.3595667381810470       5.0214757264643044      -0.2612976347693373       0.0003765801687123      -0.0003983830569644       0.0002022774523941 0 0
C           4.0814133841258791       6.3475400405145477       0.0084241544148622      -0.0000157598887059      -0.0001406688058067       0.0001383319022763 0 0
H           4.0796976331002224       6.5238202430005945      -1.0934020638812800      -0.0002864477739820       0.0002343711855578       0.0003450067468846 0 0
C           5.0563739043528626       6.7843782954618703       0.8657505265054949       0.0002286434051658      -0.0000472496288188       0.0003310976425507 0 0
H           5.8042053515117500       7.5135615229127497       0.4854712613056816      -0.0009490248148923      -0.0002955280778619       0.0007193723466568 0 0
C           9.7803189026598396       8.0168212519595148       3.7855901115869011       0.0000270271704361      -0.0003667596818628      -0.0000745694834296 0 0
C          10.3052982077161364       8.4364754410196063       2.5780633511025610       0.0001738699144955      -0.0000294238466920      -0.0002368541959073 0 0
H           9.6693730255918311       9.0411920502414240       1.9133904020940371      -0.0000616844138505      -0.0006494231647260       0.0009008462480311 0 0
C          11.5508382108188492       7.9684918867973717       2.0999543411564194      -0.0002658123200321      -0.0000921864962622       0.0000218129340765 0 0
H          11.7529131217201499       8.1671728688886773       1.0184359614296945       0.0003401515142595      -0.0011954126570585       0.0005305956443602 0 0
C          12.2881908502018842       7.1112193648345237       2.8756941657987305      -0.0000495916351205      -0.0000007113789434       0.0000397643109968 0 0
H          13.1284088406408994       6.5693421789037405       2.5376953479033544       0.0002626013530029      -0.0004663620818552       0.0002119311710241 0 0
C          11.7952589082949881       6.7831275149656882       4.1451937931374800       0.0004591533220713      -0.0000401049114016      -0.0000425011875870 0 0
H          12.2967721823227674       6.0553912622229360       4.7542176025717131      -0.0009440996981383       0.0002239568090728       0.0002687027538655 0 0
C          10.5680686314512773       7.2153138242948769       4.6003790244852807      -0.0003004470017074      -0.0001235320322491       0.0002244777131840 0 0
H          10.1845229656730503       6.7270029857499765       5.4836126768427240      -0.0000669332264145      -0.0006533306373377      -0.0007475637879102 0 0
Si         -7.2856800603230072      -9.5882544797385396       4.6591897267833549       0.0000923165489708      -0.0000300176434217      -0.0001882560986912 0 0
C          -6.4879962721066127      -8.4018950209644974       3.5586094316053654      -0.0001007541190325      -0.0002644060460934      -0.0002646348940775 0 0
H          -6.3525714988583575      -8.4836554034701557       2.5632488795913995       0.0002088387691809       0.0002428141838566      -0.0007399004016887 0 0
C          -5.6544023961332659      -7.7752973155726082       4.3865683045896162       0.0002000974391290       0.0000169181399530       0.0000009296447454 0 0
C          -6.0723453359762054      -7.6531744838978968       5.8089837184970197      -0.0002436575023042       0.0000523792834980       0.0001928844134592 0 0
C          -6.8686286291270306      -8.7467049212608092       6.1774516171249738       0.0003631460731601      -0.0001607769212013       0.0003277213646220 0 0
H          -7.1844178581853626      -8.9311670813037587       7.1615037437573541       0.0008749892789546      -0.0010471708092550       0.0015662673888418 0 0
C          -6.3365300298171805     -11.1170295371113710       4.1765464177325402       0.0001216334914249      -0.0001265156703859      -0.0003682705313476 0 0
C          -6.2835887158290227     -11.2395294497368408       2.8251758477123055       0.0004619161780258       0.0003373269624095      -0.0000119171810269 0 0
H          -6.9523804540438654     -10.5753095428807580       2.1327963998982473       0.0007732511842931      -0.0000722325352502      -0.0001882400252906 0 0
C          -5.3712294670249969     -12.1479925789351260       2.2599039260705713       0.0000469019140175       0.0001243456466789      -0.0001649093953576 0 0
H          -5.2569487204331837     -12.2518552684862243       1.1058234471874140       0.0002149042421987       0.0003368161991508       0.0001409590599884 0 0
C          -4.6776877515347772     -13.0132145208001386       3.0878362316295695      -0.0003196277166290       0.0000055055235952      -0.0003507650197006 0 0
H          -4.0436525523557636     -13.8151549042016129       2.7119844800560431       0.0000841910700159      -0.0012108895509872       0.0006805794895299 0 0
C          -4.8116791092816840     -12.9247554195536516       4.4607728541059837       0.0002082666227769      -0.0000775623722726      -0.0000143036603212 0 0
H          -4.2650778670696941     -13.6057889825045457       5.1010691039087730      -0.0003015260825397      -0.0004193290220786      -0.0006294082228414 0 0
C          -5.6338990463108551     -11.9957683081369506       4.9974556189629098      -0.0003687632855356       0.0000710873039351       0.0002294897097944 0 0
H          -5.7788586284003935     -11.9791947500521694       6.0195446838927982       0.0001615550631763       0.0001058060904946      -0.0004720469542748 0 0
C          -4.5580527792086434      -7.0261418753189080       3.7107969550705229       0.0002191122660355      -0.0002005987013308      -0.0000011716192806 0 0
C          -3.2371200395685755      -7.3958129033753828       3.9209654921047035       0.0000796804015870      -0.0002201330644423       0.0001745894678205 0 0
H          -3.0735769513057782      -8.3180329416828229       4.4522364414507836      -0.0006210518555208       0.0010553454202922      -0.0000352214301588 0 0
C          -2.2493169698321398      -6.7265027546792355       3.1980153773255253       0.0000291218697445       0.0002619491173926      -0.0000752490095573 0 0
H          -1.2471336134357278      -7.1221957624280545       3.2155694798123582       0.0017268795051886       0.0001018012573337       0.0003716110335620 0 0
C          -2.5197700751606313      -5.6591298070799496       2.3497332587339965      -0.0000551337923955      -0.0000930627237875      -0.0000129833111416 0 0
H          -1.7321918196458199      -5.2708125693081929       1.7249872415026415       0.0001665146198283       0.0001347264409065       0.0003132520490394 0 0
C          -3.8342228656452799      -5.2783263426802876       2.1771003679156302      -0.0000814987984077      -0.0001597405396420      -0.0000459963363934 0 0
H          -4.0494773070391030      -4.5458579040471960       1.3927334642774869       0.0006399700210300      -0.0004689791186162       0.0006399791990227 0 0
C          -4.8144099498756017      -5.9746582365054293       2.7899719325399546       0.0001064433354041      -0.0003227936432758       0.0002768291565602 0 0
H          -5.7653257071063777      -5.7409461140517033       2.6058300894620445      -0.0006801110777434       0.0011717242345931       0.0001817939455794 0 0
C          -6.1353517959301609      -6.4581411758452179       6.6376463776261279       0.0002889472465861       0.0002219068964988       0.0001209822743402 0 0
C          -6.7397409228587488      -6.4352300138668026       7.8741427887853215       0.0000014075697473      -0.0000278894870724       0.0003327774512206 0 0
H          -7.3648023137051313      -7.2795322478565190       8.2031429994899554      -0.0002900607912743      -0.0002688616177109       0.0008022966088035 0 0
C          -6.7253348601443248      -5.2972449591871937       8.7151257846684302      -0.0001127767697144      -0.0001369660743556      -0.0002447197941792 0 0
H          -7.2095425027679960      -5.4073379258365435       9.6415251200344514      -0.0001316049744831       0.0001288417628567       0.0007145139074528 0 0
C          -6.2665645866598050      -4.1142146715425927       8.2348522629311987      -0.0000230593990040      -0.0003862236563044       0.0002492384862618 0 0
H          -6.5027042832601909      -3.1945668101521050       8.7459768043247035       0.0007542212456555       0.0005322510646413       0.0006498066960389 0 0
C          -5.7073162627744267      -4.1064714579281025       6.9898489491832496      -0.0000963537902536       0.0001816185621586       0.0001720299814506 0 0
H          -5.2310318089391910      -3.2095964014843865       6.5648823612373661       0.0001646781151725       0.0010154037903513       0.0003453721905564 0 0
C          -5.6186145521232644      -5.2407798467377704       6.1841843837822497      -0.0000158855908398      -0.0003390522610323       0.0002507438528572 0 0
H          -5.1146070942921344      -5.2531666224725830       5.2095106800220705       0.0005254487802424       0.0000095125390028       0.0019768714600286 0 0
C          -9.1431168300844732      -9.7469533505829826       4.4424076900756777       0.0001855726426769       0.0000751388743725      -0.0000486369563928 0 0
C          -9.9364911023830995      -8.8071076202535927       5.0740268504899637       0.0001680571315777      -0.0001902877651197      -0.0000759615913636 0 0
H          -9.5325187815857220      -8.0774966608266308       5.7046818739955283       0.0010434154563056       0.0002869400900068       0.0017326930948281 0 0
C         -11.3083925335003723      -8.9703287862048597       5.0365875329331855      -0.0000603901101088       0.0001332641089315      -0.0000679332781043 0 0
H         -11.9499538640689025      -8.3042752800111952       5.6496698857017540       0.0005726992001871      -0.0009986439014512       0.0001178845673003 0 0
C         -11.8297395816080382      -9.9729119813273979       4.2190400506892241       0.0000922138519125      -0.0003751177134897      -0.0001243246701708 0 0
H         -12.8867355994186354      -9.7695793306473906       3.9148197673607905      -0.0008102586641152       0.0000620770631912       0.0002231084765722 0 0
C         -11.0419342565134269     -10.9464285379480195       3.6081243676268375       0.0001296467900594       0.0001360772899891      -0.0000099770582307 0 0
H         -11.5071949889301823     -11.5787940394257483       2.8729765548390649       0.0002158328288940       0.0007160490793231       0.0019000971124234 0 0
C          -9.6887340226591796     -10.8214660202761639       3.7574055077469142       0.0000282152285284       0.0001738559522555       0.0000936502328227 0 0
H          -9.0283503081541330     -11.5318616541095036       3.3410533165942766      -0.0002805802751609      -0.0005618513602747      -0.0002147244901588 0 0
Si          1.8726909116353825       1.0892211298529912     -11.5773826694850293      -0.0002154353343140       0.0000569576741442      -0.0000019701858484 0 0
C           1.1937605950281298       0.3453642647523831     -10.0298674700651755      -0.0000413753620878      -0.0001544407544525       0.0000890675017321 0 0
H           1.7434255313429097       0.1508262723609816      -9.1242516077252951      -0.0013980257451994       0.0002191643861172      -0.0014891979553659 0 0
C          -0.1521051757803924       0.3902966229511457     -10.0141607294832280      -0.0000676923950619      -0.0003007837516006      -0.0002817725878254 0 0
C          -0.7056248715430758       0.9112427535587305     -11.3210031797075015       0.0000361521627412      -0.0002927293504608      -0.0000099031764511 0 0
C           0.1875997860869660       1.2063361487098276     -12.3082169194240247       0.0000511268818359      -0.0001103898160006      -0.0003370630724527 0 0
H          -0.0614111098660866       1.5933610045462958     -13.1610128394894232       0.0009008199297826      -0.0003564531163259       0.0005933099420040 0 0
C           2.8505629991913768      -0.3544933834952739     -12.1719222201147463      -0.0000545000537938      -0.0000155304327484      -0.0001261210101485 0 0
C           2.3103753048542361      -0.9387571548039700     -13.2669844562678669       0.0002188366652154       0.0001178870833883       0.0002049103790026 0 0
H           1.4723717481062037      -0.5548153285897295     -13.8046620252665733      -0.0004059959164408      -0.0001506971801888      -0.0008621242015976 0 0
C           2.9005475087793182      -2.1408764272023504     -13.6902460406972963      -0.0001390862000712      -0.0001351578280692       0.0001720171793431 0 0
H           2.5701775109118716      -2.6360148947450717     -14.6960343095432666       0.0009731874918274       0.0003203587967228       0.0002439478062711 0 0
C           3.8684440965159785      -2.7479445413544816     -12.9358774646313499      -0.0001253335109235      -0.0000129641805520       0.0001314696611550 0 0
H           4.1973058590318271      -3.7861847392279429     -13.1566165630713474       0.0004482136586550      -0.0007889058317161       0.0002088127050772 0 0
C           4.3966656792521288      -2.1374489207955523     -11.8706581186661886       0.0001166602243839      -0.0004017546996066      -0.0003349026535963 0 0
H           5.1740422069392906      -2.6116173685110207     -11.2071507351662714       0.0000401842418120       0.0000170085550764       0.0002095021320417 0 0
C           3.8618888670414901      -0.9029593090171554     -11.4505825776297350      -0.0000973586829854       0.0001613526141353      -0.0001164122543557 0 0
H           4.1986126871089215      -0.5014625539288587     -10.4702580961156499       0.0004334194048663      -0.0000088392679062       0.0008034694529364 0 0
C          -0.8246690370006554      -0.1497270754118131      -8.8141773263509524       0.0000207043335623      -0.0003304239658816      -0.0001945132027831 0 0
C          -0.1071414218242239      -0.7941887079087309      -7.8031000911768595       0.0003065592330913       0.0000835988736854       0.0000298410488361 0 0
H           0.9300786241395131      -1.0497844476940941      -8.0561521227342752       0.0004683015713103       0.0009247553780145       0.0001679244652088 0 0
C          -0.7070620794782740      -1.2006790492393444      -6.6012357073475956      -0.0001344164885227      -0.0001244512852436      -0.0000718151184198 0 0
H          -0.1001763990996285      -1.6267730538076575      -5.8310728409158088       0.0001135820463668      -0.0013071266580354       0.0007698266868230 0 0
C          -2.0382817599822887      -1.0659648655516312      -6.4545911764294841       0.0001108999992225      -0.0001038827772902      -0.0001581533248089 0 0
H          -2.5408596898880065      -1.5730497370424428      -5.6119719479497556      -0.0001422549757391       0.0010760710166661       0.0008855302928957 0 0
C          -2.7825252071055768      -0.4305560814860337      -7.4471746292635164      -0.0001498162336916      -0.0000367588960633      -0.0000871653123400 0 0
H          -3.7916724985180301      -0.2272292553466830      -7.2582486469196166       0.0003634596752797      -0.0007443854044072       0.0003915342177536 0 0
C          -2.2082884185897265      -0.0773898453894564      -8.6344298356950056       0.0000473600819212      -0.0000709550246549      -0.0000382227101151 0 0
H          -2.7563874538842348       0.3980547990913282      -9.4354119907407767      -0.0004194594586243      -0.0006183677811790       0.0001419443615380 0 0
C          -2.1924946292118839       0.8582780666909574     -11.6697822620345804      -0.0000273262298896       0.0001015775380626      -0.0000895708833021 0 0
C          -2.8561050477779188      -0.3462927167850988     -11.8839313715862449       0.0000626477351665      -0.0001723401169828      -0.0001820639733358 0 0
H          -2.2479418373592908      -1.3542844455526468     -11.8852950978565346      -0.0002422898292854       0.0002061034808373       0.0000319489576799 0 0
C          -4.1508070472669907      -0.3777736721532297     -12.2234253219373841      -0.0002713175176831       0.0000007274736475      -0.0003876210139756 0 0
H          -4.6907012565548456      -1.3139910151544765     -12.3994838293089664      -0.0006179632682040       0.0000471898180266      -0.0006273672713106 0 0
C          -4.8451214694143250       0.8256366881331479     -12.4380707937028721      -0.0000220107776275      -0.0002854138822597       0.0001263369899389 0 0
H          -5.7989982679973897       0.7160847464012305     -12.9612584746409976      -0.0005887200521299       0.0004539835342852       0.0006153977227719 0 0
C          -4.1967812148684427       1.9867857455967712     -12.2566614320041829       0.0002558021339134       0.0000325218035235       0.0001169752608451 0 0
H          -4.7492892312545001       2.8867066853621570     -12.6364196871205081       0.0001416170275336      -0.0015248079172081       0.0001125997024409 0 0
C          -2.8393869202922453       2.0348033573765338     -11.8910640048810361      -0.0000870116255123      -0.0002262106591901       0.0000176230289944 0 0
H          -2.3313412146464030       3.0681932080763605     -11.9536465259846452      -0.0003566222792022       0.0012629588460001       0.0004614483522569 0 0
C           2.5923883686458340       2.6777837060615792     -10.7751961522357540      -0.0001005787585262      -0.0000824213478218      -0.0000151763750731 0 0
C           1.6989641929797115       3.6507475857113101     -10.5075984370781619      -0.0000047087884508       0.0002080238772016      -0.0000420136460953 0 0
H           0.6824610851900700       3.6316384071652688     -11.0721179671053722       0.0002443449553190      -0.0009283141487125      -0.0000750751112704 0 0
C           2.0517000987681246       4.7597249519398179      -9.7180718283761305      -0.0002183946179549      -0.0000992862891505      -0.0002837398777300 0 0
H           1.1844075915655738       5.5412646337658824      -9.6942203598760841      -0.0003715016249243       0.0007365670161001      -0.0001319429005516 0 0
C           3.3467376397393762       4.8999130836259548      -9.3603619394985991       0.0002963253925370      -0.0000237398040725      -0.0001847128341170 0 0
H           3.7502919047883601       5.8867092691675715      -9.0326584548419078      -0.0003816745295697       0.0004578873503215      -0.0003208348862505 0 0
C           4.2907529536466615       3.9059889657336311      -9.6100442214019601      -0.0001150512717455      -0.0001601498341381      -0.0000734424886647 0 0
H           5.4109844615385718       4.0063139869533400      -9.3571400492667056       0.0010337402258401      -0.0014111493343437      -0.0007116041837107 0 0
C           3.9112035375261884       2.8138568971008118     -10.4125749580169575       0.0001596082581578      -0.0001468989505240      -0.0000097641705996 0 0
H           4.6177999658530604       2.1085934967211966     -10.8808945334583100      -0.0005397706625639      -0.0003449228323857      -0.0000918572551451 0 0
Si          2.8741649036578774      -6.0318956966521373      -8.9694382450946009       0.0000607347657463      -0.0000751153389759      -0.0001303261794757 0 0
C           2.5736172158799393      -5.9040101221306180      -7.1476843279097331       0.0001165940370264       0.0001602812064385       0.0000484826071691 0 0
H           2.4396028448551790      -5.0255134098826959      -6.5560034913506193      -0.0006616021471673       0.0010299969549010       0.0007573061581316 0 0
C           2.1000273379694026      -7.1055320556167976      -6.8349079581446270       0.0000412077211423      -0.0001570778431572       0.0001950543937423 0 0
C           2.1829522808698543      -8.1826192031204208      -7.8896192666760854       0.0000978013922424       0.0003807927780710       0.0003499320424787 0 0
C           2.4090402873258769      -7.7456981142116526      -9.1218151450509097       0.0000698711266906       0.0000931329048142       0.0000531654159209 0 0
H           2.6652738626255008      -8.4302436539978416      -9.9077310777445700      -0.0003765647079773       0.0004156825257296       0.0005144931933626 0 0
C           1.7787105609759701      -5.0342502798573072      -9.9995816781525484      -0.0001618658541569      -0.0000513226215592       0.0000318072353783 0 0
C           0.9591038466764293      -5.5997143372932214     -11.0021734868207339      -0.0001626079335760      -0.0001917367778424       0.0000991216424249 0 0
H           1.0165475817288221      -6.6243917976600901     -11.3369480420298245      -0.0011229269913447      -0.0001715640363940      -0.0004129188755616 0 0
C           0.0477588612157452      -4.8137674355075726     -11.6261230564595230       0.0001410384368850      -0.0003123925465964      -0.0000666216686717 0 0
H          -0.7318728255654031      -5.2008023352934538     -12.4022525984439227       0.0002378061588212       0.0004391911573376       0.0009999760498212 0 0
C          -0.0341980103537968      -3.4624078149674657     -11.3041851490250149      -0.0001998321709619      -0.0001987515990463       0.0000006114372716 0 0
H          -0.6382281142050285      -2.7320021709479652     -11.9081140915661265       0.0005393856503039      -0.0003033003116752       0.0000035590214566 0 0
C           0.8071411527275084      -2.9297684557550818     -10.3706962078552287       0.0000633626895377       0.0000237356119763      -0.0000823880926122 0 0
H           0.7819058561463337      -1.7834374266206370     -10.2633872075512524       0.0001761222448547       0.0011200310002570       0.0002466833322035 0 0
C           1.7179585918127369      -3.7157461821173090      -9.6857008043106365       0.0001377909283708      -0.0004052971007714      -0.0000128848203012 0 0
H           2.3645963716937919      -3.1775449703601044      -9.0911488847231290      -0.0003574795511893       0.0013048761524644       0.0000372158069556 0 0
C           1.4953328943957445      -7.4492213771675493      -5.5143530993055707      -0.0000573533923231      -0.0001611674174102       0.0000064928283883 0 0
C           0.2464234498415517      -6.8569506621887522      -5.2640821557877686       0.0000145869823874      -0.0000924773772538       0.0000471422563706 0 0
H          -0.0067367112811562      -5.9104908324423233      -5.7927911161063834       0.0000719991541056       0.0004085723442943       0.0005162799112849 0 0
C          -0.5982859576268321      -7.3004332972396062      -4.2877470266598623       0.0002441192255135      -0.0000315690646066       0.0000876300163614 0 0
H          -1.5619583183469037      -6.8687080465691057      -4.1466748072899371      -0.0000313945176971       0.0005206601259069       0.0000895421686274 0 0
C          -0.1225320060184194      -8.2956952830898878      -3.4238548556230395      -0.0000420146836940      -0.0001998736396550       0.0001317997981566 0 0
H          -0.8101763219362051      -8.7262360403837409      -2.5895980654589286       0.0008572982702802       0.0005672821443302      -0.0001222608639989 0 0
C           1.1135698004352494      -8.8206255769933044      -3.5991560558119136       0.0000291471685325      -0.0001082950738994       0.0002342871743688 0 0
H           1.5578658335143463      -9.5883676518759344      -3.0088343057531044       0.0004113742284798       0.0000282197904182       0.0008742448390026 0 0
C           1.9365565552045763      -8.4697069748361482      -4.6746126285696885      -0.0000436809159337      -0.0003010195885467       0.0002879293002087 0 0
H           2.9901086915685133      -8.8246622506371022      -4.8151624644317357       0.0001423665329156      -0.0007395379161060      -0.0008263346382837 0 0
C           2.1897794677340658      -9.6155079326840180      -7.6513489458861788      -0.0001032707651614       0.0000186830860814       0.0000610947200035 0 0
C           1.0701672193868823     -10.3600913883196135      -7.3224830931852685       0.0001584410030504       0.0002734121631339      -0.0002069614382239 0 0
H           0.0925518421981257      -9.8993539251638083      -7.3601377990086574      -0.0006469853363927       0.0009654200030047       0.0001278391035633 0 0
C           1.1734058967043077     -11.7353169779682638      -7.0941093363274659      -0.0000275816931786      -0.0000298711632024       0.0000245167065850 0 0
H           0.3005849316090548     -12.3185728628391544      -6.9538491677465837      -0.0001511889016914      -0.0001344456111901      -0.0004434350221100 0 0
C           2.3902943948430257     -12.3697559365254826      -7.2958327607491480      -0.0002813361204570       0.0000947882922484       0.0002156324212494 0 0
H           2.4977266542861845     -13.4760128619440867      -7.3600090509407918      -0.0004986194547335       0.0008970520484102       0.0008111982150908 0 0
C           3.5438904304960515     -11.6556023912570890      -7.5617441122085207      -0.0000112394016941      -0.0002181840177093       0.0000215530666108 0 0
H           4.4299410864091318     -12.1134376045949246      -7.8067592081538351      -0.0004785304572573      -0.0008867421302114       0.0007072667831722 0 0
C           3.4355696931417250     -10.2906860295592342      -7.8121481045663499       0.0000667547210176      -0.0000990004166385       0.0001328726631254 0 0
H           4.2756897412553450      -9.7047219224441221      -8.2060474021701069       0.0004855399810237       0.0000932496340634       0.0007438211768872 0 0
C           4.6234476899165911      -5.9718646564602365      -9.6308288684074359       0.0000626130808657      -0.0001229293659651      -0.0000459079716974 0 0
C           4.7552952839080973      -5.5608115734118080     -10.9205570285473037       0.0001302649255173       0.0004290123471062       0.0001122805971657 0 0
H           3.8044524757753466      -5.4670469312603158     -11.5623474174099368      -0.0000696937640347       0.0001358055343692      -0.0006322483016295 0 0
C           6.0456550412408836      -5.5548005129907381     -11.5038326306208951       0.0000293208798465       0.0004650267181422       0.0001232342731497 0 0
H           6.0995295787863704      -5.3726253291012940     -12.5844711220189716       0.0001472503422581      -0.0000086522774118      -0.0006861443115508 0 0
C           7.1172724245195882      -5.9961514299771244     -10.7613880448362060      -0.0003127516762030      -0.0000561896627914       0.0002283647688384 0 0
H           8.1298427633817933      -6.1841786191223544     -11.2834023915094068       0.0009682646059886      -0.0004645278692014      -0.0004431737264760 0 0
C           6.9821997427045561      -6.2988862383175803      -9.4369319691805753       0.0002236749244155       0.0000548345738607      -0.0001870521201615 0 0
H           7.7808227173778235      -6.7287792111864366      -8.8696259305829361      -0.0012500542369442      -0.0001963291992948      -0.0000142291432002 0 0
C           5.7340119368276881      -6.3222635493740311      -8.8572111399585030      -0.0003609858264616       0.0000369490254967      -0.0000214940193252 0 0
H           5.6038705033694916      -6.7537924479450782      -7.8433657683053983       0.0010924077252942      -0.0003694155635325       0.0017868637270218 0 0
Si          1.0665707366742503       7.6807775240811109       9.9369605252165467       0.0002547229776371      -0.0000258213613278       0.0000301258832474 0 0
C          -0.1015138235219833       6.7497885690482331      11.0993708672948248       0.0000597780957902      -0.0000608738001139      -0.0001260621333948 0 0
H          -0.2291753941667604       6.9047705134902770      12.1696170964878405      -0.0007105401447364       0.0000040168877311       0.0021161311558313 0 0
C          -0.7614757394417080       5.8582303767945652      10.3767821275640379       0.0000053542139047       0.0000701783772941      -0.0000164520366370 0 0
C          -0.4606686366909598       5.8829004805528111       8.8890263923303170       0.0000469496478385      -0.0000722099208270       0.0000459949332465 0 0
C           0.6822863289131440       6.5360219780289031       8.5434729548805919       0.0000648794320666       0.0000965376012771       0.0000377774938658 0 0
H           1.0939391228565811       6.7111869162461826       7.6121393913967221      -0.0000519790407162       0.0007509609255598      -0.0009667402698663 0 0
C           0.5555161634484200       9.3190483178203376       9.2938001679253830       0.0001777416503952       0.0000093000506249      -0.0000756837564717 0 0
C          -0.4535466427737683       9.3490663373672049       8.3494803215589606      -0.0000429870655764       0.0002053760095222       0.0002959387407826 0 0
H          -0.8467812782210642       8.3749189157266422       7.9831417147420796      -0.0004273618114977      -0.0002608960768453       0.0004070911551099 0 0
C          -0.8705472597618660      10.5687711895923417       7.8480507687257486       0.0002491463505971      -0.0002292921806718       0.0004312022685745 0 0
H          -1.5757566577306739      10.6930358901128741       7.0148336401815907      -0.0016541224960191       0.0009350802711956      -0.0019940678899345 0 0
C          -0.2702953182137503      11.7671571502292434       8.2476553265042050      -0.0004141089104297      -0.0003146924981394      -0.0005157444955235 0 0
H          -0.4588063688805833      12.7055977073681046       7.7889507198675592      -0.0001334857408202      -0.0012343065088727       0.0015110823514637 0 0
C           0.7297635362399774      11.6675341171897777       9.1984502332808695       0.0001206857490743       0.0001967249136298      -0.0001347871249829 0 0
H           1.1796086743454379      12.6616264218120786       9.4707762775550570       0.0000977632874910       0.0003089160546871       0.0004267802300437 0 0
C           1.1697211209455216      10.4721448190480118       9.6878063400223517      -0.0000858758838441       0.0001636053248115      -0.0002386881616740 0 0
H           2.0813740741815283      10.4324855402164278      10.4001601783832491       0.0014716317247738       0.0000261663593469       0.0005117120562220 0 0
C          -1.7854945739691197       4.8983590453517136      10.9874410657330728       0.0000405863417278      -0.0003576346220974      -0.0000806952908038 0 0
C          -2.6480381647747779       5.3557112793890971      11.9817163233675341       0.0001614913578513       0.0001910295734599      -0.0000371522453959 0 0
H          -2.5313413175463642       6.3315393353348410      12.3144270150332460       0.0001484399842906       0.0003890008233638       0.0000350168695616 0 0
C          -3.6986290867472573       4.5531116344332787      12.4383845068248036      -0.0002372364875013      -0.0001219688476838      -0.0001118762813960 0 0
H          -4.4623842465415189       4.9998396084566492      13.0740526569123645       0.0007204488172543       0.0009315285765073      -0.0000956756024162 0 0
C          -3.8694480581897168       3.2973535454898757      11.9171886464665846       0.0000201310370107      -0.0003990048315392      -0.0000219415969112 0 0
H          -4.6727480854936623       2.7517968831346065      12.2042865742382229       0.0010732937482782       0.0008837211861695       0.0002845159713746 0 0
C          -3.0569416393448279       2.8470912847633474      10.9089055407597684       0.0000098670784102       0.0001414103974754       0.0002628483458110 0 0
H          -3.3611200979663991       1.9409788034381110      10.3769498539796317       0.0001331564272009      -0.0002985555811853       0.0006675128240694 0 0
C          -2.0675379837054519       3.6506787962352316      10.3991977351081015       0.0001790609311907      -0.0001374262654940      -0.0001218567735179 0 0
H          -1.6533969073355081       3.3839570866951538       9.4102961837501180       0.0010584027753423      -0.0003330124928475       0.0013417794337412 0 0
C          -1.3517031859676694       5.2756162368452379       7.9062398882887432       0.0002346840102954       0.0000019383302762      -0.0001126894809075 0 0
C          -2.7065499209346724       5.4592637745046302       7.9822610695720249       0.0000195365097179      -0.0000448748836266       0.0000373264340899 0 0
H          -3.1540916418769598       6.0358983194441569       8.7566345062856481       0.0007538034804858      -0.0007478931862079      -0.0003783752401757 0 0
C          -3.5517547505978575       4.9770793059125191       7.0349022755343862       0.0000116637871661      -0.0000431283072220       0.0001957323581934 0 0
H          -4.5580021370063166       5.0770673257457206       7.0655575089485971       0.0004762318879749      -0.0007006081049242      -0.0003815976941241 0 0
C          -3.0702968219857580       4.1510578452639146       6.0326369795608024       0.0001896226031257       0.0000401206763450       0.0002635413787034 0 0
H          -3.7242438810640826       3.6241165638410076       5.2354863255053612       0.0000251165322806       0.0003591657777557       0.0003496236356018 0 0
C          -1.6948792970950264       4.0419930784607825       5.8893724649570691       0.0000663437280027      -0.0000773117189475      -0.0000613567566230 0 0
H          -1.3619465139804228       3.3618361682553166       5.0159852154735827       0.0002504509587785      -0.0002057438109645      -0.0002020946474211 0 0
C          -0.8367497599354897       4.6008111408059893       6.8641625062601177       0.0000788264988185       0.0000042292797867       0.0001855049926771 0 0
H           0.1714824818795483       4.2394526989417134       6.7251519711746646       0.0006436835475915      -0.0001377376016644       0.0002308964733276 0 0
C           2.9400446198377534       7.7246010242802488      10.1119385170155951      -0.0000188557594720       0.0000305884168519       0.0000342869472053 0 0
C           3.7643945457450818       8.1121549607392787       9.0058734066278809      -0.0000468569370270      -0.0000919677951588      -0.0000375381327472 0 0
H           3.1651673788090195       8.6487986854481314       8.1975543971823690      -0.0004545231065713      -0.0003881212049014       0.0000145415002022 0 0
C           5.1180653035178993       7.9040183134821049       9.0845042751491025      -0.0003172781880932      -0.0000534733971239      -0.0000217340880621 0 0
H           5.6758097806270085       8.1452596542016540       8.2336382599744020      -0.0001189976438203       0.0009702812231184      -0.0008889161311964 0 0
C           5.6939151850076355       7.3053161198475163      10.1953303202873560      -0.0000641449214116       0.0004479303351804      -0.0002472652479543 0 0
H           6.6828375591479601       7.0639347775657493      10.3032103328862270       0.0002902467067819       0.0000663735870656       0.0003611555229685 0 0
C           4.8807946805171669       6.9898363248952116      11.2624896440831161       0.0001890788780724      -0.0002670575026509      -0.0000135151330544 0 0
H           5.2287247690273677       6.5544171083714708      12.1583703802806600      -0.0007826142270928       0.0004167539116257      -0.0001364000610996 0 0
C           3.5307909571440890       7.1591638180621224      11.1924763115330883      -0.0001090540587846      -0.0003236207100449       0.0003080878812943 0 0
H           2.8705246832848266       6.8068433213510398      11.9976577065366516       0.0006504526673295       0.0003977859968837      -0.0005356241992362 0 0
Si         -4.6927841041932723       8.5678269491467152      -3.4849875158406305      -0.0000513423917100       0.0000843173762215      -0.0001474548307945 0 0
C          -3.2716297706682318       9.5928340501242158      -4.0186882471515997       0.0001242356715676       0.0000832512726269      -0.0001557661427429 0 0
H          -2.9679867906440927       9.8319787191401495      -5.0471103976125056       0.0003490633008761       0.0007430582886773      -0.0000690429845778 0 0
C          -2.9770715962438405      10.4100605576799357      -2.9746397842168246       0.0000132730197176      -0.0001163385739898      -0.0001040987412194 0 0
C          -3.6661124186010636      10.0017416337568221      -1.6382145154108412       0.0001480954459223       0.0001633062211106       0.0001324883385571 0 0
C          -4.7094235897815313       9.1316706028919974      -1.7479151882726338       0.0000214743189066      -0.0001007514924323      -0.0002510011633796 0 0
H          -5.3215932329960438       8.7399730938944451      -0.9157203048507073      -0.0001704145302119      -0.0006111480199615       0.0024718203008951 0 0
C          -4.7069457964806949       6.7872438573397860      -3.9460554579261151      -0.0000013026941785       0.0002712543789416      -0.0003407983059533 0 0
C          -4.0512020500636732       6.4972495985244327      -5.0741109562059252      -0.0001918582391306      -0.0001471767005464       0.0000450690405190 0 0
H          -3.5159995255753054       7.2074337637684325      -5.6077276413631720       0.0003074295938495      -0.0006813730886961       0.0003220256939980 0 0
C          -4.0937561777367817       5.1999123290687557      -5.6123743883019328       0.0001263057636373      -0.0002779442641317      -0.0001539202607077 0 0
H          -3.6773587509041432       4.9552314464816618      -6.5071377718506600      -0.0007938302080622       0.0006515217707798       0.0010792109706662 0 0
C          -4.8303615566843856       4.2342520034011235      -4.9900700025818461       0.0002080291413214       0.0001869613440065       0.0001856454439926 0 0
H          -5.0833497093971660       3.2853350854280921      -5.4829462083093317       0.0006660141428810       0.0001032181852014      -0.0002745059493513 0 0
C          -5.5084526865870869       4.5500976399105717      -3.8309761178098785       0.0001205844783760       0.0001447154976787      -0.0002094866651511 0 0
H          -6.0998849968984423       3.8061676460548322      -3.2737335984408356      -0.0004040660105196       0.0000939961289487      -0.0000932226626916 0 0
C          -5.4661792640477822       5.8325735482462777      -3.3423346007151022       0.0001167026409003       0.0003549274425864      -0.0001366185242070 0 0
H          -6.1176792885543598       6.1260330723196779      -2.5134255327414423       0.0006097671529127      -0.0000774675782310       0.0011731550353364 0 0
C          -2.1788165459357867      11.6600945061547829      -3.0982579088634923       0.0002573164704761       0.0002728459222414       0.0000389843710776 0 0
C          -1.1213587495441235      11.7300912053704582      -3.9989583866277236      -0.0000330399760317      -0.0001439346198321       0.0001636292623098 0 0
H          -1.0709922718982836      10.9775472369882383      -4.7124770622029128       0.0005699084133493       0.0006941301896756      -0.0006586975961166 0 0
C          -0.3531233293558398      12.8547966280317869      -4.1136067871132331      -0.0003697867818138       0.0000035716190784       0.0000836879967084 0 0
H           0.3587674629600640      12.8891187629039514      -4.9139853707970964       0.0007867333124698       0.0009235969896464      -0.0003945822075208 0 0
C          -0.5147787833478273      13.9775168734531423      -3.3236851065162729      -0.0003445399547852      -0.0003124628231603       0.0001973581899245 0 0
H           0.0406526027147615      14.8513025999257628      -3.5449636390920141       0.0010740981176794       0.0008247113637781       0.0005339266925488 0 0
C          -1.4930138818164187      13.9200344049119256      -2.3235025508226226       0.0001404197537232       0.0001153781396205       0.0001873383129632 0 0
H          -1.6002795016747202      14.7539094648574345      -1.6189368134259188      -0.0004496925763994       0.0001246135822485      -0.0002098186203972 0 0
C          -2.3890902785960417      12.7963111887256904      -2.3064470542334874      -0.0000144177317300      -0.0005070097410862       0.0000192314146931 0 0
H          -3.2935278521643223      12.8979197577300724      -1.7720774307965534       0.0008097173784193      -0.0010011862796399      -0.0001783765406068 0 0
C          -3.1996162449355947      10.5319580355211198      -0.2946746683086224       0.0000943581720375      -0.0000626116617870      -0.0004033112435790 0 0
C          -1.8966057739643900      10.3593490601255720       0.0400340343889158       0.0002098506679814      -0.0000126257060297       0.0001583539475644 0 0
H          -1.1847662782464670       9.9363290268064706      -0.6442947866467347      -0.0019215339053084      -0.0000652248869541       0.0021907792784720 0 0
C          -1.3985451481949831      10.9474292021945132       1.2360874881338140      -0.0000267341683951      -0.0001477304300239       0.0002004312653313 0 0
H          -0.2624890697951497      10.8147422824804984       1.4335812575990063       0.0008453338834687      -0.0006116187761392       0.0000594895014003 0 0
C          -2.2087536198804814      11.6807852872749454       2.0399460118697785       0.0001955803020596       0.0002425931075233      -0.0000698452086193 0 0
H          -1.8009750466039214      12.1631112986112822       2.9012202406646752       0.0005087937217914       0.0000490776623999      -0.0002685747291290 0 0
C          -3.5624563372707847      11.9083093672216371       1.7037748706831288      -0.0000986291730956       0.0002021609550865      -0.0001801292330013 0 0
H          -4.1921680287632581      12.5967607743461247       2.1414481314915519       0.0000755364617472      -0.0006199317132507       0.0001410618966468 0 0
C          -4.0713986503221786      11.2993298788097132       0.5488311214951620      -0.0000990525474008       0.0001808297885811       0.0001320521142846 0 0
H          -5.1018924403798485      11.4490110645342433       0.1786922888022350       0.0001818625858370      -0.0007353612144938       0.0002761366316389 0 0
C          -6.1316181676909558       9.3886171637983828      -4.2705237286918889       0.0000410246819769      -0.0002646089364807      -0.0003407593647872 0 0
C          -6.1931434686119662      10.7760953710324330      -4.4775908602196584      -0.0000366242077807      -0.0003287901472389       0.0000579580827869 0 0
H          -5.5063162714787097      11.5233201443006834      -4.1007735214742365      -0.0004356570551973       0.0005637657599859       0.0004219524018283 0 0
C          -7.0781166719882158      11.2618678183097476      -5.4525775198204807      -0.0002710493375856      -0.0000465731398863      -0.0001398909079183 0 0
H          -7.0079545271939176      12.2812971002497591      -5.7115715771992219      -0.0002628984430562       0.0012111976282048       0.0000034871271374 0 0
C          -7.7324611599576958      10.4330961891948295      -6.3008186803066026      -0.0000738396672195      -0.0002311986421033      -0.0000388021896757 0 0
H          -8.2292343563672912      10.7590858166107299      -7.2333562768934154       0.0004549903277691       0.0008743587616421       0.0005308718626745 0 0
C          -7.7337386567975681       9.0326437571712486      -5.9926145524575105      -0.0000068738117810       0.0001849473685689      -0.0001466586261549 0 0
H          -8.4134842147867630       8.4282573886887420      -6.6316723966007860      -0.0003248621191714       0.0000866568349273      -0.0001601660601688 0 0
C          -6.9431584464407052       8.5576436746151057      -5.0171645969449399       0.0002141966750660      -0.0001030074684593      -0.0002065629573997 0 0
H          -6.9743688234393177       7.4852032833079525      -4.8746017768321446      -0.0011384761456836       0.0006530273541234      -0.0007992858924482 0 0
Si         -7.7037394606301266       6.1070306410516944       7.4495807651090002       0.0002308170768370      -0.0000512023647746      -0.0001076731550340 0 0
C          -6.4201577333358397       6.8457765594784510       6.3396057578271705       0.0001140721222069      -0.0002445639374020      -0.0001134535509802 0 0
H          -6.3634225318320423       6.8143773500098934       5.2936804892410638      -0.0006006488076193       0.0007188141647746       0.0004967565131476 0 0
C          -5.8559659137586699       7.8632093170331752       7.0272481091648249       0.0001060731615374       0.0001059506323413       0.0003391248906110 0 0
C          -6.0775629954399220       7.8505847598770471       8.5113854301838359      -0.0001206076868014       0.0000057952661699       0.0001323636079296 0 0
C          -7.1565873840247880       7.1790717211380572       8.8559225468916534       0.0002086693558803      -0.0003390028606134       0.0001911615517120 0 0
H          -7.4284451421306130       6.8770817968347666       9.8423025787987246      -0.0000835068864671      -0.0004452054365023       0.0014174974672415 0 0
C          -6.9968115338425880       4.3430788834435043       7.5564863428115183       0.0000585468166859       0.0001171042621143      -0.0001285812813259 0 0
C          -6.4547847218205181       3.9540485529621088       8.7445500759439625      -0.0002696920840796       0.0003237005497833       0.0001647560467666 0 0
H          -6.3294873044219626       4.5853673568862012       9.6155475507242922      -0.0002384308848062      -0.0000385991800156       0.0008291542020151 0 0
C          -5.8453363198531783       2.7063847156910352       8.7482871245479341       0.0001535585266160      -0.0004446225805491      -0.0001796850074197 0 0
H          -5.4736625845417901       2.3527152503751223       9.7125946305628705       0.0003975954852946      -0.0001494175516205       0.0015416931676844 0 0
C          -5.6595118033316716       1.9828676299590020       7.6243191822313188       0.0001253299509265       0.0002422796239949      -0.0002194761430919 0 0
H          -5.0946511948135047       1.0682791230082265       7.6920569808455443       0.0000630903625612       0.0011478114413280      -0.0003914136794724 0 0
C          -6.1395718789331397       2.4370645906784736       6.3998833735944824       0.0000484705667510       0.0002728500693979      -0.0000895933059575 0 0
H          -5.9184901051228351       1.8228726238260022       5.4806466537716876       0.0008964171147119       0.0001742499978232       0.0003804111530832 0 0
C          -6.8771688861083016       3.6403222598259668       6.3839300447267338       0.0002106346658279      -0.0000248521378893      -0.0001215783444220 0 0
H          -7.4066222461024127       3.9664826617950406       5.4461287371778804       0.0018150385560684      -0.0009687743843318       0.0011952440178142 0 0
C          -4.8933187475687694       8.8335058158245783       6.3947652774762389      -0.0000832615138380      -0.0000894013355400      -0.0003784977101458 0 0
C          -3.7057541793267998       8.3853635622652725       5.8307145415817727      -0.0002372848534398      -0.0000056052004830       0.0002052936724710 0 0
H          -3.5635603522534929       7.3139308260655991       5.7336236871706632       0.0003656091294785       0.0015188374013375       0.0008347674058189 0 0
C          -2.8425338788977514       9.3076354061377522       5.2141913846954413       0.0000064371684334      -0.0001519719120621      -0.0000434383605492 0 0
H          -1.9041987083379459       9.0728831812592308       4.7045912977533222       0.0003642333012257      -0.0002453291845154       0.0004243966454747 0 0
C          -3.1947132275032373      10.6436976051691872       5.2308489555393516       0.0001386469684434      -0.0000045657784420       0.0000499941377139 0 0
H          -2.5143296756757234      11.3587588052493729       4.7602951709726637       0.0006545919555639       0.0007756359609396       0.0002645398598663 0 0
C          -4.3892830159318859      11.1105415624064605       5.8055516158244087      -0.0001435220142549      -0.0003591742813256      -0.0002238359166921 0 0
H          -4.5638640664246832      12.1600730704365247       5.6939468061524314       0.0004110649161787      -0.0000580751081712      -0.0000957055058069 0 0
C          -5.2615418644117424      10.2149194100100100       6.3456442605456163      -0.0000820837104240       0.0002300763335559      -0.0000973291668744 0 0
H          -6.3089022410115669      10.4187987960258237       6.5777026813271950      -0.0012053492426409      -0.0002096001530839       0.0013832000266426 0 0
C          -5.0018758907599032       8.2092251171623971       9.4669594020315770      -0.0001923173302426       0.0004694011624379      -0.0000076630551869 0 0
C          -4.1448752217688538       9.3550676156634633       9.2100710456503307       0.0000698477054930       0.0000805660323737       0.0002632020251050 0 0
H          -4.2437807696082954       9.8482076366916154       8.3220181474732247      -0.0004740852587466       0.0008170592612492      -0.0002610919355864 0 0
C          -3.3398345306088846       9.8432451707348605      10.2008480029771018       0.0001521650112547      -0.0001659743559597       0.0001485995438170 0 0
H          -2.7183098372951089      10.6804139267509957       9.9393544216582068       0.0010124992493036      -0.0001243070681931      -0.0005978494755925 0 0
C          -3.2359077603889999       9.2803797457547788      11.4543516081333632      -0.0001927527903477       0.0000364676085484       0.0002234490635711 0 0
H          -2.5932730153102179       9.7137483986783391      12.1103343667120562       0.0002904940630909       0.0007577888424402      -0.0000403815595538 0 0
C          -4.0192683820620037       8.2019811127888715      11.7427076083627853       0.0001820268465017       0.0001054539590907      -0.0001628745443540 0 0
H          -4.0872517133338961       7.7061258024007513      12.7428279551483215       0.0004707636316975       0.0005840641854712      -0.0003191983900682 0 0
C          -4.8524941773393282       7.6246809909280655      10.7753890437647453      -0.0000989233699753       0.0002679465782312      -0.0000900745351468 0 0
H          -5.4355307381146050       6.7526676507779406      10.9714949351530073      -0.0009041977215908      -0.0005116210038939       0.0012272680262878 0 0
C          -9.3754623904319434       6.3284192028791271       6.6160214737821166       0.0002202012859691      -0.0000234947213160      -0.0000476415458574 0 0
C         -10.4539790964658472       6.5427513514600664       7.4125003930540583       0.0001007842278023      -0.0001337752509985      -0.0004855619345598 0 0
H         -10.4068847842272465       6.6364911583469155       8.4795060892201253       0.0002001428504778      -0.0000923341006569       0.0015731146066530 0 0
C         -11.7384759755262191       6.5074625505899304       6.8981128259491031       0.0000967015341303       0.0000767557469761      -0.0001454311817834 0 0
H         -12.5848832508791606       6.5875468140092961       7.5230577748432257      -0.0000185418778277       0.0003936467895098       0.0007958778424235 0 0
C         -11.9736399867463685       6.3119894871808295       5.5795029185058729       0.0000866774358584       0.0001486717024895      -0.0004664773067329 0 0
H         -12.9980687199912399       6.2903981057634457       5.0938058410045999      -0.0001734373317276       0.0001978082722371       0.0015442864518953 0 0
C         -10.8392215076912102       6.2425221378017453       4.7129316138024544      -0.0000438684407851      -0.0001852396796161       0.0001534942508993 0 0
H         -11.0648717998557977       6.1769703861796366       3.5744424873289367      -0.0001138757407381      -0.0008881754800969       0.0009026817868018 0 0
C          -9.5307063527717073       6.2314137239846401       5.2336686079735024      -0.0002043901565570      -0.0001655070056382       0.0000960564185736 0 0
H          -8.6478386568736667       6.1144856571427129       4.5668461811436467       0.0017927393936306      -0.0004268310122584      -0.0016613222876558 0 0
Si          7.4620092709996522      -8.5311631205161227       4.0314200701958667      -0.0001135285430842      -0.0000421187309294      -0.0000585924656335 0 0
C           6.3940744228638833      -8.5452007177034535       5.4789000711743761      -0.0000965190872089      -0.0000454166557223       0.0000152269983327 0 0
H           6.3617026748343273      -7.8955654023262216       6.3868029167267499       0.0004394285746254      -0.0001182724677286       0.0008911226374163 0 0
C           5.5193553778597666      -9.5528959548011585       5.3392300992814938      -0.0001467745887408       0.0000227249585626      -0.0003086596643330 0 0
C           5.5762180017952767     -10.2273630854958579       4.0016764439034276      -0.0000521641274036       0.0000071343931806      -0.0001551219897147 0 0
C           6.5932566092104672      -9.8869704415989172       3.1564704989603345       0.0001063306544538       0.0003184941389987      -0.0000623311773858 0 0
H           6.8010584857215566     -10.1796242572278857       2.2006911160774676       0.0008589094481174      -0.0005678998716666      -0.0001558716920563 0 0
C           7.3220908798135049      -6.9404335123826790       3.0544913141914813      -0.0002067912104492      -0.0000466445965247       0.0001475322411180 0 0
C           6.4321854897957813      -6.7103873228430695       2.0401840604627961      -0.0002227979332198       0.0000421619135728      -0.0000924158571316 0 0
H           5.7708482171105411      -7.5216711844787829       1.7748129787915661       0.0004964443537491       0.0008099008148884       0.0010699925231872 0 0
C           6.4063642104453056      -5.4386028067616250       1.4032966060427565       0.0002576414913496      -0.0000731612431979       0.0001684662725215 0 0
H           5.6975784918024539      -5.2391201291645446       0.7083088953390237       0.0007285079304293       0.0008131262928457       0.0000228521951298 0 0
C           7.1681241728795717      -4.3999752235813858       1.8808062471135794      -0.0004762427812583       0.0000080546503010      -0.0002384325803020 0 0
H           7.0918018640645100      -3.4269870983065491       1.4432165484039987       0.0001032184752722      -0.0008786529076279       0.0008705887455678 0 0
C           7.9567575642046560      -4.6203448338793605       2.9688332979921528       0.0003444792017438       0.0002001092790935       0.0000995986115589 0 0
H           8.5096067791303884      -3.8067095993907416       3.4404495599982199      -0.0012586495570972       0.0003110825925624      -0.0000253915390314 0 0
C           8.0928467813823417      -5.8612738910002040       3.5002851040679128      -0.0002432415238227       0.0000949658665910       0.0000529890079806 0 0
H           8.8916095032309617      -6.0724266883203599       4.0985966401108742      -0.0006985954272672      -0.0001727827656417       0.0005574383039633 0 0
C           4.5015502642945568      -9.7461817920429095       6.3601287552440260      -0.0002072319253446      -0.0000172368934650      -0.0002699879166706 0 0
C           3.1752581015386410     -10.0427772079659405       5.9227281797836433       0.0001775849797577       0.0000346897360228       0.0000610039323666 0 0
H           3.0162984928362229      -9.9809033202347770       4.9693927512554392      -0.0002526358832462       0.0004581730388900      -0.0014630443070133 0 0
C           2.2628287542778360     -10.4270573839581768       6.8416729245599512      -0.0000484654292508       0.0000371467195048       0.0004561554937052 0 0
H           1.2714770781213967     -10.7992774261630071       6.4712266158660787       0.0009489521430397      -0.0001646744090476       0.0007582996941622 0 0
C           2.6143196486537135     -10.5762340091182683       8.1757104658385487      -0.0004742279877094      -0.0003263733223467      -0.0003901322977875 0 0
H           1.9560243186212249     -10.8841577336036970       8.8574801663492888       0.0005973898011630       0.0006470572974735       0.0002395412109812 0 0
C           3.9260820718609679     -10.4045323083203396       8.6099724241711666      -0.0000556760317912       0.0000567505953390       0.0001704825691826 0 0
H           4.1478099651000546     -10.5352219971470706       9.6379298357475420      -0.0001160167933373       0.0008707062161547      -0.0008045860692733 0 0
C           4.8680962384333499     -10.0198661634128552       7.6946109810820333       0.0001443152886122       0.0002476200160497       0.0000470500009682 0 0
H           5.9067529393220752      -9.9007931515137049       7.9314751687556235      -0.0001787869272913       0.0003090378811716       0.0000144683021758 0 0
C           4.7422110052008071     -11.4122433555681582       3.7754554741192221      -0.0001918725544843       0.0002159566457569      -0.0002598009489884 0 0
C           3.7991450971715679     -11.4882619933113066       2.7205569411382231      -0.0000881634625416       0.0000102737161722       0.0001901499622019 0 0
H           3.6653810657400578     -10.6527594443637650       2.0315723391225728      -0.0003842508434156      -0.0001744506154749       0.0000853844637061 0 0
C           3.0576942459514500     -12.5698832955732662       2.5276642128569060       0.0000431041543767      -0.0001539779151875      -0.0000849903476472 0 0
H           2.2187321810932374     -12.6517579579957005       1.7555360545854688       0.0012896067188500      -0.0011027707424347       0.0006422778903900 0 0
C           3.2951134695399933     -13.6701386947355186       3.3523726497270045      -0.0002356854337178       0.0002065331748340      -0.0003372768877339 0 0
H           2.7097375931992143     -14.5874050663814199       3.0694741925012803      -0.0004668788528250      -0.0013296456426095       0.0003096886926363 0 0
C           4.1787619007757808     -13.6582392668494990       4.3923036174172116       0.0002022997032826       0.0001475068375033       0.0001392914447432 0 0
H           4.2527979304991081     -14.5132703874174105       5.0518423865410806      -0.0003375375884467      -0.0013150984195676       0.0006037661751964 0 0
C           4.9342104717824204     -12.5230131019402311       4.5814042906540298      -0.0000445426604976      -0.0001624559798403       0.0000855174504521 0 0
H           5.6850045405409553     -12.4675476664514928       5.3391795835925837       0.0000295478595147       0.0008245734117473      -0.0000094618192599 0 0
C           9.2074969277346170      -8.8842294348088355       4.4698234285181986      -0.0001437078400457      -0.0004573467712321      -0.0000231016014906 0 0
C          10.2445892301688026      -8.7504639226310452       3.4995619323521741       0.0003280522956203      -0.0000331327514158       0.0002241844870606 0 0
H           9.9354216495774814      -8.6847104875439705       2.4917812732023568      -0.0017360516455958       0.0002526904046507      -0.0016949349137672 0 0
C          11.5215964494351208      -8.6413057913862943       3.9696336491078741      -0.0004068587309127       0.0001655052556132      -0.0001264674964440 0 0
H          12.2880489184905475      -8.5184030843173453       3.3298846804328965       0.0008158155867314      -0.0004518245532536       0.0004192346398107 0 0
C          11.7620110327855443      -8.7828269146042786       5.3554412956227759       0.0000927982215330       0.0004260475264084      -0.0000489296252988 0 0
H          12.7884213029771647      -8.5616626469264165       5.8220892982966657      -0.0000076593433520       0.0006775702027980       0.0002935176104549 0 0
C          10.7282093946501096      -8.9672894082019834       6.2577652994029727      -0.0001376240463094       0.0001596644956588       0.0000187033026623 0 0
H          10.8909101253723062      -8.9967588574063235       7.2828098160849324      -0.0002615158434803       0.0006328998531051       0.0017696179409627 0 0
C           9.4571213028475629      -9.0377291724227113       5.8025748619761206       0.0000386849768159      -0.0001202790079531       0.0002525443727191 0 0
H           8.6851742629227058      -9.1135510379113001       6.4411697737989160      -0.0002710126929745       0.0002961988864052       0.0001054932244450 0 0
Si         -9.0140755256668186      -0.5535540764824409       9.9436920503345654       0.0000469592460513       0.0000753515708434       0.0000435907613552 0 0
C          -7.3619100973718776      -0.4598085003403046       9.1298840129254959       0.0001988111553593       0.0000897007409779      -0.0000162086085408 0 0
H          -7.0176223171790566       0.1929078904458724       8.2057509987159190       0.0001158046910576      -0.0006384332700736      -0.0000142521664867 0 0
C          -6.6297727823908286      -1.0186243426361372      10.0345655037682899       0.0000015669374137      -0.0002143743375916      -0.0000131841419777 0 0
C          -7.2547879481067428      -1.7098414059854252      11.2978632825091569      -0.0001102065047830      -0.0000975197488150      -0.0001167075205112 0 0
C          -8.5572781032608738      -1.5803275730692345      11.3380757118926052       0.0001116609229289       0.0000343878855214       0.0000786888255353 0 0
H          -9.2865857930664628      -1.9838191979956534      12.0964585085922316       0.0001221334630387      -0.0004116842081086       0.0010800175336720 0 0
C          -9.1572895489262702       1.1877641017767020      10.6128129425525444       0.0000773585460228       0.0002277557467825      -0.0001115720449158 0 0
C          -8.4457332223348285       1.4648328898946201      11.8009005415223847      -0.0000302678354143      -0.0001473377529063       0.0000585335028783 0 0
H          -7.9409964253827106       0.7091182954315770      12.3105011067741508      -0.0001935993346786       0.0005576345595357       0.0001051439067735 0 0
C          -8.3004309481156042       2.7538555084256946      12.2038461049190996       0.0000200891354690       0.0001907487524909       0.0000831696341560 0 0
H          -7.7305680184480003       2.9470438202845037      13.1825265129335403       0.0008188957519699       0.0004553024651961       0.0014275341651803 0 0
C          -8.8977628641317175       3.7663465692244169      11.4725533328010876      -0.0003338591040480       0.0000948944310188       0.0000599397047676 0 0
H          -8.6914589786832526       4.7869253693348108      11.7474152962929175       0.0004026657950285       0.0002285280524156       0.0007808493274024 0 0
C          -9.6435747732729933       3.5019953387773812      10.3343753867755428      -0.0001311861600493      -0.0002218025382341       0.0002545899465983 0 0
H         -10.0718684266617498       4.3422319407372543       9.7028839983994501      -0.0006869103881961       0.0019129564632413      -0.0006691306669184 0 0
C          -9.7266712553540025       2.1617645735047040       9.8559655656184457      -0.0004104535272533      -0.0000182095730537      -0.0000829499866284 0 0
H         -10.1955773140354538       1.8778453938590998       8.8598420904078452       0.0009414922838403       0.0005148074347071       0.0034631319396408 0 0
C          -5.2050717693823483      -1.0792325180812166       9.7715212804848264      -0.0001342990001367       0.0000028856074313      -0.0000051545898820 0 0
C          -4.6838680660729990      -1.4793024060217368       8.5466213049167070       0.0001701047597338      -0.0000939959197077       0.0000414559828121 0 0
H          -5.4445892137570189      -1.7081826930219519       7.6869482751700007      -0.0003836358397463      -0.0005103773614890      -0.0007773541800677 0 0
C          -3.3238729944869800      -1.4268926909744295       8.3853272938424954       0.0000384925838027       0.0000121200099732       0.0002624151940289 0 0
H          -2.8990023458535856      -1.7091408632409641       7.3773996917560956       0.0002462976085740      -0.0008259809493741      -0.0004508271924554 0 0
C          -2.4806396795835011      -0.9788220243888467       9.3575277262604928       0.0000813879048791      -0.0001308544632026      -0.0003211526927727 0 0
H          -1.4257983840435882      -0.8763350791967557       9.1241526876893424      -0.0010573994529569      -0.0007413216785729       0.0017437633155872 0 0
C          -2.9748344342482937      -0.6143646269901638      10.6343815258666936      -0.0001710918525639      -0.0000841195631530      -0.0000800749118928 0 0
H          -2.3181974926181299      -0.2575755435878034      11.5170732903353805       0.0004785576050434       0.0002457605100795       0.0002524843344639 0 0
C          -4.3445815951294016      -0.6368509376917417      10.7904319508512785      -0.0001016330142181       0.0001109724632664       0.0000123064629268 0 0
H          -4.8471846797138936      -0.3087986005035104      11.6476279079311418      -0.0002924117330046       0.0007946644676735      -0.0007218284934058 0 0
C          -6.4324938500401938      -2.5673185829667680      12.2555245445355929       0.0001346101636260      -0.0002511756787996       0.0000615098430700 0 0
C          -6.2310766281463641      -2.1933921744467546      13.5918678592597413      -0.0000093320945083       0.0002301950584353      -0.0002018238342018 0 0
H          -6.6822559854418655      -1.2709904646186330      13.8712503350921068      -0.0006167341817499       0.0000080251182529      -0.0002849860933630 0 0
C          -5.4523402123610056      -2.9937268448295420      14.4213779543560587       0.0001399167323280      -0.0000402965477322      -0.0000472380858437 0 0
H          -5.2529022192586128      -2.6038183857641286      15.3696661446289493      -0.0002217048906015       0.0003214936544410       0.0017328467595422 0 0
C          -4.9717647345367686      -4.2125900568714885      14.0035220704959560       0.0001267305667896       0.0002372806295026       0.0000685838692791 0 0
H          -4.3772964191571839      -4.8163599275725062      14.6913905215833136       0.0003967655647359       0.0002738690705115      -0.0001007449698776 0 0
C          -5.2351755852213628      -4.6134517093137548      12.7286076883103227      -0.0000206709426205       0.0001052805322476      -0.0002203093121753 0 0
H          -5.0028033229830182      -5.6553258659371251      12.4246474360209209       0.0002048767299594      -0.0003922938781019      -0.0001780795843665 0 0
C          -5.9195408983078153      -3.7787816724548589      11.8382415067521034       0.0005493022990236       0.0000219911303146       0.0001587981439454 0 0
H          -6.0153952655021294      -3.9934636578171183      10.7791700499315120       0.0006341609425721       0.0009095190451386       0.0017322101493857 0 0
C         -10.1838603258088174      -1.5174070840809344       8.8663442407167246      -0.0000998323255253       0.0002060265234635      -0.0001352121280373 0 0
C          -9.9173055082257786      -2.7977079286216093       8.3815526465252859      -0.0001086320171609       0.0001355689382488      -0.0000082986169816 0 0
H          -8.9645607757409635      -3.2645641203558471       8.6123032313399310       0.0001421513964228      -0.0002946402803679      -0.0005589155003251 0 0
C         -10.8912403286349004      -3.3978092620114637       7.5819768676619121       0.0003935888134282      -0.0000760813696608      -0.0000848535846628 0 0
H         -10.7404406150395388      -4.4915410459103819       7.2392296173824633      -0.0011610437611299       0.0018042387948689       0.0003365420038180 0 0
C         -12.0094547851990043      -2.6905996688356693       7.2105741344564649      -0.0005216338339654      -0.0000252986967584      -0.0002793213615954 0 0
H         -12.8169169129621565      -3.1518635972619702       6.5189998571550731       0.0007243971131752       0.0009132089539823      -0.0000998292871999 0 0
C         -12.2374975363513965      -1.4142843771143740       7.7289867572123994       0.0000079159914224      -0.0001888488838569       0.0001135828846557 0 0
H         -13.1146908477695945      -0.9077143958304611       7.3590728902373570      -0.0002394071732124      -0.0005211402240755       0.0002110212010527 0 0
C         -11.3207313482063441      -0.8195859499328130       8.5430405792345248       0.0005171981800289      -0.0000332535069573      -0.0000853030653947 0 0
H         -11.4474025625678912       0.2025255874327923       8.6996672213895803      -0.0003118874746189      -0.0016344717794514      -0.0006781198300390 0 0
Si         -2.9055168033266492     -10.8947641941462727      -6.5239640690113863       0.0002139997732656      -0.0002518551651563      -0.0000951064181399 0 0
C          -2.2790365451722359     -11.0006669716076484      -8.2480043041820199      -0.0003780047194810       0.0001417440956580      -0.0002214303488124 0 0
H          -2.4161029338139035     -11.7876989430431021      -9.0136417133948719      -0.0002373489185116       0.0016118106917539       0.0012421034840175 0 0
C          -2.1858466373240293      -9.7054535294672952      -8.6297681852788468      -0.0002700337680572      -0.0000945365783597       0.0000496084882243 0 0
C          -2.1768710913301179      -8.6543263547033487      -7.5512856903170897       0.0000284099211296      -0.0000496599966454      -0.0002596406880290 0 0
C          -2.6509821517510650      -9.0277581346457971      -6.3593815549828667      -0.0003261349872354      -0.0000977751872984       0.0002069490970513 0 0
H          -2.6281237860229676      -8.4182222561030819      -5.4621658364245596      -0.0003486714526046       0.0006325063469570       0.0008450562199932 0 0
C          -2.0578468579408460     -11.9415200348202060      -5.1829673454222132      -0.0000529461739087       0.0000792563559251       0.0001279925814620 0 0
C          -1.3699052081247229     -11.4098703578706395      -4.0570910339475654       0.0000628112862302      -0.0000827059473392       0.0002046690009748 0 0
H          -1.1493972068858305     -10.3567171192419014      -4.0917750293361959       0.0006713609019197      -0.0001532219064345      -0.0001189764752280 0 0
C          -0.9065410574880270     -12.1723393875200330      -3.1012865723017895       0.0000765859742415      -0.0000950466815753       0.0001160554499365 0 0
H          -0.3576179036866488     -11.6449749338733000      -2.2921069597449484       0.0008165158237803       0.0008602584994945       0.0008758985406335 0 0
C          -1.0521956418572485     -13.5973693086019427      -3.1249946050097899      -0.0002694150517647      -0.0004728938082476      -0.0000365316537824 0 0
H          -0.6304138382006911     -14.1395424781552705      -2.3026029228647946       0.0005256862876343       0.0001294964626995      -0.0004578338265297 0 0
C          -1.7599306234017067     -14.1388740778269533      -4.1915050701345589      -0.0001027786476873      -0.0001202085296261      -0.0000757646141931 0 0
H          -1.9584951449328578     -15.2213173918004330      -4.2796261753966744       0.0001585164498731       0.0011387996175712      -0.0005741963844861 0 0
C          -2.2774950882754532     -13.3159471464640955      -5.1622887150934575       0.0000960825060261      -0.0001002776221956      -0.0000965518645020 0 0
H          -2.8638338764278788     -13.7220099911676598      -6.0561726824033082       0.0007827548281787       0.0010814210589085       0.0005165206335983 0 0
C          -1.9501020592241018      -9.2445909247271896     -10.0474480560512127       0.0001190396038687      -0.0001109889412152      -0.0000159924094269 0 0
C          -0.6613362505608030      -9.1572869177900529     -10.4865877900074640      -0.0001772197426026      -0.0001468870916112       0.0001515829101727 0 0
H           0.1258461737836935      -9.4900991204652492      -9.8880229499411065       0.0011977007485940       0.0006742937407274      -0.0000159625661371 0 0
C          -0.3628320464064462      -8.6785112982543282     -11.7530903138531233       0.0001612975936343      -0.0001288978723539      -0.0002380499863917 0 0
H           0.6009689622896053      -8.7614855807086549     -12.2196347815839861      -0.0011545058354570       0.0003293376962743       0.0007916973228297 0 0
C          -1.3811690000875296      -8.1742734995346691     -12.5233246873755100      -0.0001498483784238      -0.0000794611320780       0.0001605813491959 0 0
H          -1.1952862843045025      -7.9194538227954157     -13.5457686370067769       0.0001385924833416       0.0000100240244735      -0.0003804892816280 0 0
C          -2.6839185951714652      -8.2641826152754732     -12.0883009919299695       0.0001096001174137      -0.0001707291413031       0.0001858828863999 0 0
H          -3.4660486273816118      -8.0239360378404658     -12.8296922057670706      -0.0005475029590053       0.0007379400026436      -0.0015136783556117 0 0
C          -3.0373652741009520      -8.7622011321950097     -10.8503224139480796       0.0000356794489659       0.0002484231727279       0.0000028941242322 0 0
H          -3.9795403122091670      -8.9518490029012998     -10.6197704948299112      -0.0010420238269680       0.0002750389330171      -0.0005958338084297 0 0
C          -2.1380034323031269      -7.2119430176507766      -7.9116070633132818       0.0001368961520404      -0.0001172010307705      -0.0002633361904037 0 0
C          -3.3119191590021075      -6.5497757365400879      -7.9362352989619973       0.0001975695212316      -0.0001077311664872      -0.0001942348705623 0 0
H          -4.2670177925965138      -7.0698809635826674      -7.9370310324177229      -0.0015241203439470      -0.0004669227182480       0.0014791472961023 0 0
C          -3.4077971351708802      -5.1767781331792104      -8.1431105410089462       0.0001606823856929      -0.0002236406119266       0.0000314679934659 0 0
H          -4.4149711785697967      -4.6915873998709774      -8.2100841940524436      -0.0011110599568913       0.0011708640203474       0.0007545074147382 0 0
C          -2.2437291000978634      -4.4434870324183038      -8.3509580794588256       0.0002140893306206      -0.0000215865339624      -0.0002122413790776 0 0
H          -2.2226796511122440      -3.3922478338137090      -8.5609075667451027       0.0002787893426836       0.0006469003725753       0.0019846255948868 0 0
C          -1.0211856690966348      -5.0598489018108257      -8.2986348863394372       0.0000179843922943       0.0001967254895335       0.0000516528222748 0 0
H          -0.1512053384224147      -4.4964113328997470      -8.5546294215352852       0.0009846741126712       0.0006064371933570       0.0002955284872744 0 0
C          -0.9481217607649802      -6.4366097845790833      -8.1538157464758196       0.0002792639293197       0.0003958231634855       0.0000379701043198 0 0
H          -0.1257393330162559      -6.9847069901955887      -8.4116423197200501       0.0012578049422267      -0.0005916046222701       0.0005569834216825 0 0
C          -4.6443120978319641     -11.4238749604150236      -6.4054343642472418       0.0001058485134624      -0.0002884612260431       0.0001391889059883 0 0
C          -5.2739968186807102     -11.6308313083216408      -5.2222137840447527       0.0000065736663114       0.0001349798383146      -0.0000526746674140 0 0
H          -4.7689065602657994     -11.6619834020216881      -4.3253650610650549      -0.0002961344949273       0.0008229029291371      -0.0003946971175376 0 0
C          -6.6505166880345428     -11.8346069956312760      -5.2365339414442120      -0.0001557463034247       0.0002228923122342       0.0002392916274175 0 0
H          -7.1978672986383838     -12.0431738002357971      -4.3099442304217002       0.0014970599942844       0.0006179385091056      -0.0016888695115308 0 0
C          -7.3249284160199011     -11.9296587195897441      -6.4087149332885671      -0.0001713352747329       0.0000894433120341      -0.0004718902989062 0 0
H          -8.3471823318679714     -12.2272902681449054      -6.4837840058990235       0.0012259297634812       0.0006222691147278       0.0012552358334651 0 0
C          -6.6629159834409553     -11.6244590368125174      -7.6213601729623690       0.0001062799059096       0.0001557500522633       0.0002406488771753 0 0
H          -7.2717995072179740     -11.6252278052935552      -8.5348864153559845      -0.0005790648819904      -0.0000576150171960      -0.0003363327189973 0 0
C          -5.3097646280876738     -11.4192362308369155      -7.5973228732656262       0.0001263809399926      -0.0000451911671157      -0.0000010735460295 0 0
H          -4.8088012227619386     -11.2231403429442853      -8.4633854988396973      -0.0010766002226244      -0.0001593912873650       0.0014087547789127 0 0
Si          9.8644537562229324       1.5675471387083026      -7.0850085932049760       0.0002752671207983      -0.0000334678038087      -0.0000833608432237 0 0
C          10.1426046237030487       1.0134832221183359      -8.7623768965558835       0.0000140755252794       0.0000736083326097       0.0001850360998262 0 0
H          10.0784359285059040       1.7016084876678528      -9.5995636132694067       0.0006175841421751      -0.0007964286204694       0.0012207493253739 0 0
C           9.7291992820055242      -0.2453847655985565      -8.7339478256333543       0.0000074904797612       0.0000479366252344      -0.0001762216531452 0 0
C           9.7302968638250764      -0.9205041722306788      -7.3625281495112960       0.0000627045851588       0.0005226109926870       0.0001271370274214 0 0
C           9.8268233278864390      -0.0962906046865629      -6.3461518403362485      -0.0000888992874559       0.0001217773833605       0.0000502423576695 0 0
H          10.0261125791607899      -0.4630878491863056      -5.2704736478389194       0.0016838491420994      -0.0002196887243480       0.0013507162003009 0 0
C          11.2755877251072789       2.4590989010890247      -6.3284024842004767      -0.0000164278066808       0.0002674197154395       0.0001869197585706 0 0
C          12.4163178641443483       1.8060970461096642      -6.0109164854249579      -0.0001019188069929      -0.0002339453225280      -0.0000369334275278 0 0
H          12.5253037266860581       0.7612240480504330      -6.5062733808106170       0.0002849179087228       0.0010903533510662       0.0003965493423419 0 0
C          13.3529610105687375       2.4084747695892825      -5.1830323949873884      -0.0002948054567514       0.0001514759591197       0.0003723698113995 0 0
H          14.2376811722488181       1.7969064694051686      -5.0623839571776239      -0.0000017808157633      -0.0006690504252767      -0.0005956058269619 0 0
C          13.1893473443965021       3.6822069042337597      -4.7208827779709441      -0.0003129287007176      -0.0000532235772032       0.0000760228703383 0 0
H          13.9404299680873613       4.2076287680397986      -4.1528254052475129       0.0005595635290177       0.0010944950685147       0.0010581510797617 0 0
C          12.0006364664824368       4.3540209955275753      -5.0397439890538376      -0.0002365073342181       0.0000757353812071       0.0000836582494274 0 0
H          11.7493457212447332       5.3657442700459033      -4.7767130751458966      -0.0006718142213310      -0.0004419403271476      -0.0010246382762924 0 0
C          11.1064173233907830       3.7557439153694623      -5.9139144458279516      -0.0003127716564801       0.0000660473688909      -0.0002513217374150 0 0
H          10.2403512878460212       4.2663765724898113      -6.3347470309326877       0.0012875763218708      -0.0003347572128841       0.0006090575177343 0 0
C           8.9542050217083542      -0.8297402591419120      -9.9101412997508067      -0.0000165900554338       0.0003798716063681      -0.0001537033539924 0 0
C           9.1123556006857651      -2.1552986545701027     -10.2552438535459274      -0.0001639408567176       0.0002614111247511      -0.0000854058392857 0 0
H           9.7742343981663549      -2.8741826012533229      -9.7009024752698210       0.0001173635078782      -0.0014281982933628       0.0016333841806314 0 0
C           8.4287098104998073      -2.6215813700309933     -11.3754533466207359      -0.0001606923717330       0.0000729998780858      -0.0000674093979180 0 0
H           8.4705789201077213      -3.6160771498710780     -11.7035770565227466      -0.0002771255464656       0.0013578146591270       0.0010493970329587 0 0
C           7.5840648866731577      -1.7724578370142847     -12.0553099388519058       0.0002818514042951       0.0000443536412876       0.0000342333653599 0 0
H           7.0172174249081971      -2.1766011899393707     -12.9343161161091693       0.0002774606594643       0.0002183308733479       0.0001578288116929 0 0
C           7.4324857253898031      -0.4557858984113710     -11.7194778385185003       0.0002232078818393       0.0000189514589296      -0.0001386534455273 0 0
H           6.7220547374905060       0.1296337719856492     -12.3761728209010098      -0.0005077899521510       0.0000408859832668      -0.0004799716536638 0 0
C           8.1483607495887203       0.0071057921233305     -10.6281244464053000      -0.0000860940322042      -0.0001185114528921       0.0003306419340487 0 0
H           7.9246990435083253       1.0333245143940850     -10.3969526017626475      -0.0009561637719115      -0.0011489001722291       0.0009811816439805 0 0
C           9.5325063790292344      -2.3716035581029202      -7.2538341922388163       0.0001250538965596       0.0001587961582453      -0.0004027884235539 0 0
C          10.6305328441485401      -3.1776685890749508      -7.4603694749375054       0.0001946641204533       0.0003027019845980       0.0000002649103702 0 0
H          11.5087498579808383      -2.7541467438017202      -7.8671272764594571      -0.0005509320387967       0.0007723956160742       0.0000509612366786 0 0
C          10.4090629353564470      -4.5625300867614405      -7.4829834916036209       0.0001084006836559      -0.0000202905513364      -0.0001559296485447 0 0
H          11.2490967689635202      -5.1486970709689848      -7.8324888990494790      -0.0006600239195627      -0.0001429458492524       0.0003473393691490 0 0
C           9.1962577328976813      -5.0625373553083888      -7.0684712959467841      -0.0001175372658226       0.0001761977627043       0.0000536804257310 0 0
H           8.9279858406127666      -6.2490150477034829      -7.0984083328546834       0.0000676617963392       0.0005032442109401       0.0013826807180729 0 0
C           8.1525307790575514      -4.2237222062490920      -6.6909967361096410      -0.0001741061589387      -0.0002812731948394      -0.0002558470463769 0 0
H           7.1599072087862394      -4.6009025811823152      -6.6199538712394457       0.0006688648297617      -0.0001618550984701       0.0001385207593082 0 0
C           8.3133392239741895      -2.8872693378285565      -6.8476557190625682       0.0001370936428170       0.0000857262234684      -0.0002087986554405 0 0
H           7.3680564806473186      -2.3229296524565086      -6.8334167838165536       0.0002483153447804      -0.0003874475351866       0.0006708907124358 0 0
C           8.1918193265642572       2.4675497624597247      -7.0010628334750251      -0.0000716059577603       0.0000417768355573       0.0000084233064555 0 0
C           7.1729979871509828       1.6898797895861972      -6.5295845113513709       0.0004568250834074       0.0000675893084971      -0.0000211994958517 0 0
H           7.3006795309331416       0.6431681751854106      -6.4258941118288391       0.0003575009625812       0.0001826762573469       0.0015188050220805 0 0
C           5.9078562796224450       2.2730388274619946      -6.2343007224441536      -0.0001279120976014       0.0001758505574442      -0.0000236918056777 0 0
H           5.1055396318086190       1.6642206831853743      -5.8258478612383904       0.0001857758497566       0.0006258573884246       0.0007609628419604 0 0
C           5.7086096663758701       3.5667033139135347      -6.6929615019779289      -0.0001051034004838      -0.0003227568942158      -0.0000017338818881 0 0
H           4.7160464154186279       3.8972463261408623      -6.6686244435291986       0.0007261355357696       0.0006976636977567      -0.0000344464488313 0 0
C           6.7358787353869438       4.3548262301457550      -7.1020013040815826       0.0001096739749314       0.0000423983435427      -0.0001919207864630 0 0
H           6.6192540652038190       5.4126495361996376      -7.3347361540049754      -0.0002449276111644      -0.0003151822028747       0.0003448535364306 0 0
C           8.0063428278340787       3.8053249894947898      -7.3052174410744692      -0.0002473034795675      -0.0002138028288698       0.0000910612841873 0 0
H           8.8624729812738625       4.4115161586050542      -7.6597375445511648       0.0010793728648768       0.0007149423522378       0.0002867380075405 0 0
Si         11.3786995386557876       1.7379762927149958       4.6334330546546054       0.0001538943846945      -0.0000253856282085      -0.0000224192192280 0 0
C          12.8365561109554154       1.1348894958948490       3.6403684633050024      -0.0001970782071494       0.0000620434292525       0.0002453124209495 0 0
H          13.2502428917442465       1.8653733485424731       2.9361276916137258      -0.0000992703542738       0.0010392916320296      -0.0001485354449371 0 0
C          12.5797463543905224      -0.1150390051258747       3.2395047513375061      -0.0001131401314302      -0.0001024019834159      -0.0000095848226864 0 0
C          11.5311016724500028      -0.7775345105469876       4.1334717027057195      -0.0000396389693671       0.0004345034939009      -0.0000315512671966 0 0
C          10.6268871695587244       0.0631692615314324       4.7196968261131911       0.0000793947396628      -0.0001028430248019      -0.0001936312661877 0 0
H           9.8692920873608614      -0.2705429032031041       5.3613223925178444       0.0016061841843351       0.0006560001974637       0.0005944359623332 0 0
C          11.4653500213469517       2.4493274712148230       6.3677220664648706      -0.0001934615180624       0.0002566520489920       0.0001226614432312 0 0
C          11.2422667935719360       3.8172073831704791       6.6109009500290457      -0.0000357976434397       0.0001216290228387      -0.0001520890112467 0 0
H          10.9563577352100427       4.3754370806073926       5.6877155846896770      -0.0005537616197351      -0.0003177053647330      -0.0001705609860909 0 0
C          11.1412524500859575       4.2693780783348361       7.9050159970508052       0.0000769403895208      -0.0000876071817213       0.0002855979491282 0 0
H          10.9118656894860244       5.2669996150059717       8.0174064798563407       0.0002329040356757      -0.0008157931262292      -0.0001614511703371 0 0
C          11.0858715117336679       3.3612062409535679       8.9439365250434761       0.0000119017464821       0.0002788838972130      -0.0001119738123871 0 0
H          10.8414461210908026       3.7266179027798989       9.9370742127327887      -0.0004993541494635      -0.0004874850419906       0.0000334544809052 0 0
C          11.2394486418116237       2.0268973328748690       8.7232944182809184       0.0002430088730486      -0.0003634589188043      -0.0001005868197636 0 0
H          11.2829163603568592       1.1653479892042615       9.5293040643867268      -0.0007364962453871      -0.0011957239553523       0.0001907746067944 0 0
C          11.3776754783311986       1.5660494481174621       7.4074442811728431      -0.0001164477224108      -0.0002692619021604      -0.0001116085913494 0 0
H          11.3979437419715346       0.5628430149701689       7.1794778231273240       0.0008198209276634       0.0005185205879254      -0.0002660350217523 0 0
C          13.0065355186269098      -0.7194494288114474       1.9518026511671678      -0.0001171811665766       0.0002049226483025      -0.0000469581983919 0 0
C          14.0743318037952498      -0.3046641801945666       1.1897651397421107      -0.0001555240441280       0.0001392440306000       0.0000735133965179 0 0
H          14.5740688134320688       0.5249757907198355       1.4768912539774162      -0.0007300851250880      -0.0003391448404802       0.0004854745076862 0 0
C          14.4099218778134315      -0.8946786418454856      -0.0143491954302407      -0.0000415230191297       0.0002915648978833       0.0000145195277909 0 0
H          15.1656935930745433      -0.5301899222585709      -0.7108345034026121       0.0001892765644011       0.0001994971641409       0.0007095990658216 0 0
C          13.6720579759494836      -1.9274009344345797      -0.5442926357850340      -0.0002324775853488      -0.0000072848820897      -0.0000070218421495 0 0
H          13.7988334826351373      -2.3035952017689603      -1.6446984872148587       0.0000309163900493       0.0003426117115963       0.0011487531300344 0 0
C          12.6093258565844728      -2.3592903062361503       0.1959209084210362       0.0001121165963521       0.0001237199734674      -0.0001014810080762 0 0
H          12.0872510001742075      -3.2923841522897823      -0.1617980785842256      -0.0003642010935667      -0.0000347073505821      -0.0003650935783826 0 0
C          12.2773867180135401      -1.7586332023828462       1.3834755026834755       0.0000322193544512      -0.0001955788416970      -0.0003369680041913 0 0
H          11.4143940036753015      -2.0860441833497401       1.8624860161238619       0.0010366361470683      -0.0006725581574449       0.0009546116370279 0 0
C          11.5250539062813235      -2.2238694548514886       4.3928790997935323      -0.0000711596141383       0.0000561013560834      -0.0002638205444356 0 0
C          12.6676240686661981      -2.9499432473969849       3.9939896730389424      -0.0000029591642543       0.0000577980093052      -0.0000493717397629 0 0
H          13.4630125679003960      -2.4450474231072814       3.4462231359295870       0.0007481446814024      -0.0001938791201321       0.0004861212471651 0 0
C          12.6794796740736331      -4.2793488974328175       4.1301933582546519      -0.0001718112335490       0.0002324635766941      -0.0000479558432950 0 0
H          13.5943361994308614      -4.7952082007457388       3.7285076323548587       0.0001130235461011      -0.0006148958442444       0.0010399802827792 0 0
C          11.6144171383870543      -4.9983027681883110       4.6329518539205150      -0.0000416157155692      -0.0000376162898875       0.0000186015254513 0 0
H          11.5922658553071187      -6.0948707380837570       4.6734884059591035       0.0006671398429753       0.0008379458663240       0.0004993257444340 0 0
C          10.4559369414706094      -4.2557779823724378       4.9799598554112601      -0.0000322566288393      -0.0000687563006763      -0.0000961465515078 0 0
H           9.5022856388149961      -4.7734800764612322       5.2577752206944721       0.0002366527798260      -0.0003142583047863       0.0010504237317568 0 0
C          10.3988142028451449      -2.9346083915122883       4.7988705320839387       0.0000488830744521       0.0001034794998918      -0.0001563020155610 0 0
H           9.5177201239998315      -2.4452886341381963       4.7069410540643490      -0.0002239275766991       0.0004823761233473       0.0005889655955271 0 0
C          10.3034546997672152       2.8540808208065718       3.6033691749609025      -0.0000600483032515       0.0000561554478240       0.0000479672619526 0 0
C          10.8135668882504525       3.9621502080102609       2.9540591652572954      -0.0006420292993714       0.0001339510252804      -0.0001501805243341 0 0
H          11.8208983069883917       4.2530825966477650       3.0485628104957652       0.0020209332335284       0.0008491173927513      -0.0001603020660577 0 0
C           9.9870743974773859       4.8293983356194641       2.3449668740740646       0.0000370205677362      -0.0004701542968481       0.0002054302834002 0 0
H          10.3713695637031140       5.7202722452789718       1.8175299120761592       0.0003913587024190       0.0001633885007792      -0.0009686769391412 0 0
C           8.6370517771451336       4.6002632442612077       2.2381242462485922      -0.0004489125531779      -0.0001306565443504       0.0001726391480141 0 0
H           7.9533617066116911       5.3300156264714653       1.8180847585263964       0.0008132869699432      -0.0003896756277438      -0.0007936196597847 0 0
C           8.1245016350622166       3.3435171963849255       2.5995693079583950       0.0000186870192537      -0.0001114259958103       0.0004982439392395 0 0
H           7.1249111732702417       3.0313692137185408       2.2784646171437153      -0.0004593607041814      -0.0005929554585616      -0.0006327131361363 0 0
C           8.9731669592647201       2.5232542861760079       3.3195544982950298      -0.0002814246755736      -0.0000092571414157      -0.0001751829276654 0 0
H           8.6975708951118023       1.5033268806186915       3.4463711418582901       0.0000493215558132       0.0014427695366534      -0.0013594726227420 0 0
Si         -0.5017316456942437      -3.4291739686609319      12.1910891571031001      -0.0001112235872431      -0.0001521322183015      -0.0000979060606872 0 0
C          -1.5471366753120694      -2.5057073641131788      13.3833470625211923      -0.0001864240786457       0.0001149350963398      -0.0001264991893228 0 0
H          -2.3810347029866650      -2.9777979621612825      13.9220383473631397      -0.0002175226548255      -0.0008679339547860       0.0009460724460893 0 0
C          -1.1370846337782543      -1.2295380331383845      13.4456993850311548      -0.0003327889283325       0.0001213358125185      -0.0002949755929175 0 0
C           0.1882289437136019      -1.0146303009250210      12.7257029832769568      -0.0000000442187615      -0.0003437691194678       0.0001838703116570 0 0
C           0.7248425935293611      -2.0810385404807223      12.1087282698992915       0.0001282780489598       0.0003457791458372       0.0001276482674566 0 0
H           1.8282597494370063      -2.2593371683254140      12.1217117056617081       0.0008474103276126       0.0002089651533405       0.0002418725253286 0 0
C          -1.5140594950098516      -3.6670768176879962      10.6947809060808456      -0.0001029864725901      -0.0000603485296572       0.0000521105540745 0 0
C          -0.9546458779626593      -3.3530018354635893       9.4846950488420330      -0.0001996934223164       0.0000657030316920       0.0002879922075834 0 0
H           0.0585417572339436      -2.8934544465795033       9.3832942457995738       0.0008817789813696       0.0009811972547489      -0.0005780404724895 0 0
C          -1.6112967261402800      -3.7213584416136656       8.3718974935032691      -0.0001110532934021      -0.0002087097930650      -0.0001390952878298 0 0
H          -1.3238070753376332      -3.4706036501128481       7.3457558940159267      -0.0008558300943512      -0.0001908616648598      -0.0006771626703369 0 0
C          -2.8893382958770721      -4.2578277445477948       8.4382571264330544       0.0002539346246845       0.0003499208940474      -0.0001102352440343 0 0
H          -3.3438594135177970      -4.6206474727571374       7.5998774560175173      -0.0013107716676184      -0.0008553734095962      -0.0007754746005934 0 0
C          -3.4946090803687948      -4.4598380455461637       9.6723955902876142      -0.0001236741024473       0.0000030290119296       0.0003181857976686 0 0
H          -4.3972965061807505      -5.0800156183991794       9.5389068411347804      -0.0011191397219759      -0.0000309320282320      -0.0008069038030011 0 0
C          -2.7572905400640941      -4.2283220708683631      10.8203748981108738       0.0001544371832555       0.0001744523600092      -0.0001480011687064 0 0
H          -3.2474134489632913      -4.4174853193774313      11.7443536754047599      -0.0012564802254565      -0.0000831668903331       0.0002714393445802 0 0
C          -2.0657262061037129      -0.2248930248784963      14.0388625206649102      -0.0000208619847371       0.0001685893794865      -0.0000816084992688 0 0
C          -3.4128039683703135      -0.3408819085822251      13.9885179286949928      -0.0002170510316191       0.0000221312166149       0.0003366530114016 0 0
H          -3.9287812771952244      -1.1654293823108512      13.5326000748701496       0.0014277046509629       0.0005353732126281       0.0009650842829623 0 0
C          -4.2053002110909494       0.7176392626947086      14.4754208047233792       0.0003455878991101      -0.0002011978700703      -0.0001366023717787 0 0
H          -5.2670401023995321       0.5348492336444914      14.5323104163384720      -0.0002604466158173      -0.0007725196754597       0.0004228749222637 0 0
C          -3.6441700060196189       1.8762641872616472      15.0566597892005571      -0.0001149725645305      -0.0000428140796136      -0.0000554260542861 0 0
H          -4.3214401546835770       2.6259022782294679      15.4454452305092858       0.0002905891508513      -0.0007074654903109       0.0000168497149114 0 0
C          -2.3261777237889723       1.9975306619972391      14.9957875003686389       0.0001315489197916       0.0002367012011908      -0.0001950215830493 0 0
H          -1.8366521371490916       2.9847136393043887      15.3570583691336626      -0.0001122405076896       0.0005300510892672       0.0008610347314943 0 0
C          -1.5318700555276268       0.9361920403052281      14.5648984182179699       0.0000952761403157       0.0003701160488593      -0.0000279139552810 0 0
H          -0.4733383290123970       1.0286636814278596      14.5341826521839224      -0.0000949032724469      -0.0000806172056305       0.0012084043424112 0 0
C           0.7227421821970089       0.3373018495185138      12.7313445124497910      -0.0000873039576668       0.0000100543124690      -0.0000630813519559 0 0
C           0.0605137438291849       1.3471264580686020      11.9782639918232547       0.0000395481075686      -0.0001380672807755       0.0001929926567124 0 0
H          -0.6155108931347929       1.1094904303268183      11.2041139353754104       0.0003705301714869       0.0010594686858688       0.0025760479179550 0 0
C           0.3211612998989439       2.6357052675175812      12.3853730270618740      -0.0001894520728219      -0.0001915217191219      -0.0000159860589423 0 0
H          -0.1215041191308773       3.4726376711019284      11.8454708024581716      -0.0007685995983265      -0.0001671652940108      -0.0001838868868604 0 0
C           1.3568623418998644       2.8788836282535928      13.3084427034600523       0.0000724455639664      -0.0001163753798882       0.0000997718497818 0 0
H           1.4959721300202669       3.9127466056132558      13.5316386119817924      -0.0008391192742983       0.0002656299638106      -0.0006896082287928 0 0
C           2.1362539025286700       1.8822761495210618      13.8903507791232759       0.0001334023813376       0.0007212052844613       0.0000257708528959 0 0
H           2.9626890637379057       2.1129613918263086      14.5899053865108996       0.0002669995185903      -0.0003939707523447       0.0002541115793350 0 0
C           1.8038937029638737       0.5600985860357757      13.6250985867400978      -0.0000802702699157      -0.0002517148386513      -0.0000158148297643 0 0
H           2.3290190066436862      -0.2814574873283369      13.9574362082617593      -0.0001226301319932       0.0005140730678961       0.0003064480129705 0 0
C           0.3157591176343186      -4.8881340613795805      12.9894331410212960      -0.0000008073438605      -0.0000097511586580      -0.0001150986483878 0 0
C           0.0774698920339739      -6.0872923212288406      12.4402561606512947      -0.0000512291898245      -0.0000583439615315      -0.0001076968880556 0 0
H          -0.4940722498949210      -6.1259969542955242      11.5421572721019192       0.0005277775369772      -0.0002416038469789       0.0012955640842225 0 0
C           0.8072042048212619      -7.2001466224589983      12.8844962272031509      -0.0003439319385333       0.0003770314314825       0.0001232162432441 0 0
H           0.6747870379589066      -8.1903562023364653      12.4299276913473733       0.0002038519102413      -0.0002018793980275       0.0008869782498175 0 0
C           1.8290647676623022      -7.0214119603505960      13.8193535369198468      -0.0000812509667621      -0.0000729147619526       0.0000675413019258 0 0
H           2.5284713465683804      -7.8159664049007658      14.0720842415555847      -0.0005139065963301       0.0013418447159028       0.0004417951755560 0 0
C           2.0168964729928134      -5.7762443129772496      14.3633247120612495      -0.0001060836870293       0.0000037862528107      -0.0000711228372820 0 0
H           2.9198137271106299      -5.5355183070013600      14.9816867055598753       0.0016067854841590       0.0010926476101697       0.0019695794254621 0 0
C           1.2973031298514728      -4.6949179243382995      13.9416717912245325      -0.0002380006585977       0.0002836579862097      -0.0000158750613148 0 0
H           1.6110184062619144      -3.7636794218288459      14.2488281569623361      -0.0001883314995937       0.0006014335623250       0.0004675130500866 0 0
Si        -12.4927727648151663      -2.7591363357451097      -1.9622420737375121       0.0001102786686818      -0.0000231446221510       0.0000791012532057 0 0
C         -10.8452165572381727      -3.5266083295874826      -2.4021457713549403      -0.0001204253488653       0.0000604483841845       0.0001105701892044 0 0
H         -10.0847255989340372      -3.0790319816566343      -2.9535851409635940      -0.0020013624286242      -0.0011565401312144       0.0005771144030244 0 0
C         -11.0759164023518402      -4.8612794787636515      -2.3798285722228831      -0.0000132128556869       0.0000856943383171      -0.0000834420407586 0 0
C         -12.4110334278022965      -5.3072392788354019      -1.7660782707979228       0.0000546709746348       0.0000779098447910       0.0000838660041278 0 0
C         -13.4095573505967298      -4.3792642572106741      -1.8476459188222598       0.0000664441626556       0.0000091350718703      -0.0000572607143521 0 0
H         -14.3993100212086915      -4.6759203533337574      -1.5962449947484245      -0.0006210311839371       0.0004923306871235       0.0006661520450669 0 0
C         -12.3725774565123992      -2.0246758173923984      -0.2452910053068411       0.0000722454112802       0.0004093806420910      -0.0000772589945101 0 0
C         -11.4708189308281963      -1.0327984752482977      -0.1107068384679468       0.0000847997176451      -0.0000394656038542      -0.0002684407275750 0 0
H         -11.0991723195141141      -0.5679747930536925      -1.0659776053496770       0.0005252905812696       0.0004376186649523      -0.0012163700563997 0 0
C         -11.1175925833307723      -0.5247291107038741       1.1602602569590197      -0.0000341187527040      -0.0000425336983278       0.0004772738105573 0 0
H         -10.3570882516433596       0.2383972619944899       1.1533949803893309       0.0004807658761699      -0.0008922662547553      -0.0005389085597963 0 0
C         -11.8186508434282977      -0.9556726640961661       2.2589007053516643      -0.0002754517138238       0.0002488389252043      -0.0003576295034030 0 0
H         -11.7315645080983124      -0.3970467989359900       3.2233621548607561      -0.0001401723011331       0.0009871627907102       0.0014845841189989 0 0
C         -12.7997202682199678      -1.9141297986702979       2.1081690335701575      -0.0001762817770135      -0.0002561352023239      -0.0002689795831910 0 0
H         -13.4387334252855837      -2.2842601125805189       2.9212022972592142      -0.0004882541218505       0.0002726679487338       0.0006972212836361 0 0
C         -13.0588936008461811      -2.5019044153710959       0.8694330477571104      -0.0000212026968468       0.0000703849213855       0.0000209116560058 0 0
H         -13.8042126611711282      -3.3037397288041617       0.6377162030100840      -0.0002068596041865       0.0001576458205952      -0.0000498746707405 0 0
C         -10.2890230514073924      -5.8799135797046196      -3.0928634952452256       0.0001239760250105      -0.0001642944005689      -0.0001397037781786 0 0
C         -10.0977246977143533      -5.8815854030715702      -4.4809812430905467       0.0000764970707677       0.0000985908893317       0.0002177532633344 0 0
H         -10.4782276322835912      -4.9746116295852003      -5.0198192570316804       0.0006300493297536      -0.0009398118689504       0.0006103235587401 0 0
C          -9.4029162208285797      -6.8466467975989760      -5.1082102092914639      -0.0002820496383787      -0.0000200570561805      -0.0002268349794408 0 0
H          -9.1059900459365544      -6.8724082452445314      -6.2060012436887249       0.0006947775189837      -0.0002456313204094      -0.0001728672253037 0 0
C          -8.9937309536238672      -8.0096753233494500      -4.4066280065152910      -0.0003574227969596       0.0001301665934359       0.0000031787365583 0 0
H          -8.4977439634517147      -8.7677808311851066      -4.8196766155449504       0.0004014959442023      -0.0007276425963012      -0.0001352752019157 0 0
C          -9.2655367365547665      -8.0556128925731070      -3.0505898545369163      -0.0001423936099654      -0.0000317122958328      -0.0000086038609397 0 0
H          -9.1692334521743746      -8.9786472193853406      -2.6050653238041237      -0.0003586802208331       0.0001818151072674       0.0001846619675644 0 0
C          -9.8602622731775025      -7.0135597638809006      -2.4051257647258772      -0.0003798748695583       0.0000550948459664       0.0001092335726551 0 0
H         -10.1450650336172590      -7.1505988032040984      -1.4422815549568204       0.0003576687112805      -0.0003563891716243       0.0000606874716738 0 0
C         -12.5494978752074129      -6.6179541986936243      -1.1318276142633856      -0.0004151524863945       0.0001607890537084      -0.0002960478544316 0 0
C         -12.2512247182690786      -6.6962193671581121       0.2888168444987297      -0.0001754663370535      -0.0000997944136060       0.0001445976859542 0 0
H         -12.1020818541998558      -5.7711955593961362       0.8107589667227836       0.0003234807276938       0.0011793712927846       0.0004272971590147 0 0
C         -12.0358881510995666      -7.8899835444065847       0.9221645574768316       0.0001567446867539      -0.0002071040532342       0.0002503474376246 0 0
H         -11.7185943820267369      -7.9075842377685301       1.9292505620662570       0.0006542238823644       0.0002155660535102      -0.0001586775336812 0 0
C         -12.2594328537558557      -9.0624276057251727       0.1514121341249566      -0.0000568483099147       0.0001760789337307      -0.0005198703394353 0 0
H         -12.3194846983758470      -9.9707701034083698       0.6723409542744895      -0.0001083228222891       0.0007292691079328      -0.0002745931148748 0 0
C         -12.5661790210659845      -8.9938377134299223      -1.2163064118198341       0.0000005766740443      -0.0001214769272707      -0.0001341058475423 0 0
H         -12.6612745597834078      -9.8890192272837005      -1.8306592982189700       0.0008227933219459       0.0019128033308063       0.0020291160853578 0 0
C         -12.7415479637887774      -7.8230172196595698      -1.8350042824178021      -0.0000425804755948       0.0000769421956088      -0.0002937935464870 0 0
H         -13.0572858585670950      -7.7220179327912382      -2.9304299349366216       0.0008830859578524       0.0003947786112788      -0.0003544476859884 0 0
C         -12.9636059588180110      -1.6753716732619934      -3.3650534663416378      -0.0001157527974307      -0.0002365383642172       0.0001197147955167 0 0
C         -13.0789225249797312      -2.2378211848672658      -4.6190216321300444       0.0000612796350724      -0.0000298841609857       0.0000617276979585 0 0
H         -12.8766869433834472      -3.2851719133177744      -4.8515675848244033      -0.0004632159308252       0.0003872918954628      -0.0000739363784452 0 0
C         -13.3981887764085510      -1.4312838102231582      -5.6903661932829621       0.0000697117233318       0.0000992248185799       0.0002641712478888 0 0
H         -13.6444834500341763      -1.7994575981209380      -6.7654970180776397       0.0003124035602311       0.0007100583855956       0.0003394254618694 0 0
C         -13.4933659571167084      -0.0683099970102534      -5.4896110273279719       0.0001786126774006      -0.0003664690282935       0.0000298551025239 0 0
H         -13.8115555819722662       0.6517094645491974      -6.2894213515776132      -0.0009426618257371       0.0008121097677382       0.0000976299288727 0 0
C         -13.2078734688183950       0.4749651165347641      -4.2787608503540850       0.0000631523970712      -0.0000535070653293       0.0000929860634519 0 0
H         -13.1961926734814643       1.5393546297674492      -4.2282320317446924      -0.0005469204689953      -0.0000960131354758       0.0003623006425996 0 0
C         -13.0737094044366930      -0.3267420208577370      -3.2003005979176198       0.0001156274943362      -0.0002067708672444       0.0001914732373634 0 0
H         -13.0863572654712250       0.1497481902934538      -2.2878089544887295       0.0000326112980076      -0.0000123390216339       0.0002925833337873 0 0
Si          6.8873181067435940     -11.1884760728538915      -1.1172659396656832       0.0000713803715363      -0.0000242953748005       0.0000351983295366 0 0
C           8.3221056292747484     -11.2439445666654425      -2.3052280786765422       0.0002652668431288       0.0002633980738248       0.0000326812436551 0 0
H           8.5109368684607123     -12.0456067833394727      -3.0608583797024012      -0.0003879589483975       0.0000010592433158      -0.0001041808142189 0 0
C           8.6945193363668327      -9.9512594184321514      -2.3597470774690730      -0.0000696308695575       0.0002092128373305      -0.0001327783405504 0 0
C           8.2563970582535937      -9.0437492301755142      -1.2115998465044735      -0.0004414100796012      -0.0001699075002924      -0.0000713020400107 0 0
C           7.0778533107053248      -9.3834343299607887      -0.7734058975446618       0.0000832185115266       0.0000552195929049      -0.0000036187686760 0 0
H           6.7344743105476743      -8.9516322548596623       0.0949119500374826      -0.0010934479411494      -0.0005982554508988       0.0007781361509585 0 0
C           7.3687233244161305     -12.1360115236102253       0.4284836559522766      -0.0002993563403500      -0.0000199750534684       0.0002018578568671 0 0
C           8.3532738048783699     -11.5525583885206640       1.1942887762901477      -0.0000358894992947       0.0001311191548701      -0.0002987400919051 0 0
H           8.8778451542933290     -10.6753298167462187       0.7654687710773540       0.0001133866032702       0.0006223463209941      -0.0004498495779989 0 0
C           8.6439006072253335     -11.9994615298895244       2.4460521346297450       0.0003020709041605      -0.0003931760476296       0.0001349833996755 0 0
H           9.4564479646139379     -11.4928535025592691       2.9606387115454740       0.0005568987603780      -0.0003124785827845      -0.0007367602888756 0 0
C           7.9706452509142593     -13.0961252683771168       2.9674640821072806       0.0001163257494617       0.0002303853366953      -0.0000042801661201 0 0
H           8.2142919692759797     -13.4244418410326212       3.9640828837056441      -0.0002114471331964       0.0007610764461121      -0.0003300653934989 0 0
C           6.9545008617427762     -13.6783990479840920       2.2114337032163149      -0.0002505252145174      -0.0001480318380793      -0.0001998228007200 0 0
H           6.3875880879975373     -14.5148759033812347       2.4902893387211833      -0.0002672045028828      -0.0007305798068912       0.0003634056606111 0 0
C           6.6750888050832735     -13.2475112473296441       0.9354666314623958      -0.0001085141564734       0.0000218710801939       0.0002395802519694 0 0
H           5.9797539838180613     -13.6117722351527526       0.3126414705212171      -0.0016277040191239      -0.0007541651216214      -0.0006304557055950 0 0
C           9.3386476370664582      -9.4690306074831589      -3.6317938526762283      -0.0000210067134259      -0.0000816958160419      -0.0000901643921081 0 0
C           8.8122641582258687      -9.8386865979656086      -4.8434915713344289       0.0002688973165274       0.0002708594683268      -0.0001018738200235 0 0
H           7.9283039794936974     -10.5237668192271183      -4.9300956891951486       0.0003844051573575       0.0004998089343962      -0.0008768542771414 0 0
C           9.2518493943435249      -9.2472217815846491      -6.0197675802163637       0.0001138385546533      -0.0002001892313838       0.0001553179001570 0 0
H           8.9911616466652795      -9.6248581746771684      -6.9772163432382666       0.0000555944479177       0.0000689412452508      -0.0006150751630024 0 0
C          10.2442285838264233      -8.3210187848825026      -5.9594615985448041       0.0002936167550059      -0.0001331426453157       0.0001536434987820 0 0
H          10.7085106551325815      -8.0063613541318350      -6.9356376329055651       0.0001476281460422       0.0003018547648138      -0.0000059399109523 0 0
C          10.8506177618271060      -7.9063316858080626      -4.7347607301259416       0.0001010080738792      -0.0001463296186162      -0.0000415548004396 0 0
H          11.6471153468757382      -7.2156864482386087      -4.7480189619600583      -0.0002008295694504       0.0000529192706599       0.0006243211618144 0 0
C          10.3194509301014179      -8.4669408393322829      -3.5726475556803470       0.0001784574786799       0.0001097369285302       0.0001958127327373 0 0
H          10.6601800639059174      -8.1920888910857137      -2.6916531140634943      -0.0004812860056805      -0.0007121628478040      -0.0018860531582567 0 0
C           9.1964725894518331      -8.1648924507204637      -0.5019923055159222      -0.0000167265527747       0.0000955804118740      -0.0000922174641113 0 0
C          10.4386888114446048      -8.5987877421250367      -0.1323451542392403       0.0002077186369390       0.0000886850207847      -0.0002105858947786 0 0
H          10.9022874710978819      -9.5981484326502375      -0.5538283986867889      -0.0006499963746093      -0.0009625908166814       0.0003867567894067 0 0
C          11.2568053070291310      -7.7410413441688837       0.5751017308024767       0.0000814515894493       0.0001171489594468       0.0000854778105951 0 0
H          12.2102484929827870      -8.1343093005777440       0.8039431416934583       0.0006631333578066       0.0005335407261583       0.0004248298854219 0 0
C          10.8667597439031471      -6.4179692050226098       0.8256965705554909      -0.0004302713903111       0.0001499297285098       0.0000141777430898 0 0
H          11.4619127391896356      -5.8105732148527354       1.3878694084378864       0.0000354421895782      -0.0004711084952111       0.0009430210365569 0 0
C           9.6044277622858374      -5.9686872848191053       0.4552918026863202       0.0003074573688132      -0.0001107175467104       0.0001852058982253 0 0
H           9.2404757420316326      -4.9681102962337791       0.5879957183959572      -0.0008331217036836      -0.0006478309172145      -0.0005975124725298 0 0
C           8.8008795564718127      -6.8397897408235435      -0.2661077154258991      -0.0002185419330377       0.0001079617855079       0.0001754633577567 0 0
H           7.8622345072631097      -6.5738971289068138      -0.7079884533568179      -0.0013322292097134       0.0003168788650037       0.0004551529093243 0 0
C           5.2418133308963002     -11.4785266625614284      -1.9623433731206867       0.0000011285944473       0.0000343745039384      -0.0000415425859715 0 0
C           4.2315333596603208     -11.8311290721803317      -1.0864469570676534       0.0003666416278849       0.0002542427602059      -0.0000828654636969 0 0
H           4.5071702421214814     -12.0188131304729104       0.0054415296730155      -0.0010977219458864      -0.0001123603246965      -0.0013984045599389 0 0
C           2.9365450873131658     -11.9905435134830185      -1.5172439598246550      -0.0003857745517237       0.0002120367570437      -0.0000217927196733 0 0
H           2.1714017170975679     -12.4240561190808680      -0.9567609138061781       0.0005973749173861       0.0012412263045897      -0.0018175979673048 0 0
C           2.6156097606063398     -11.7673460680323334      -2.8040103377255035       0.0002483222624218      -0.0000414441506341      -0.0001378844912502 0 0
H           1.5843472753757200     -11.9650640581663339      -3.2283102447327541       0.0007726956753463       0.0006783902470773       0.0004515533522358 0 0
C           3.6515202855166726     -11.4517451335909453      -3.7224881777899830      -0.0001009950244421       0.0001033108952615       0.0001650608581662 0 0
H           3.2712654097241112     -11.2841384074635922      -4.7204353535519497      -0.0005283526011465      -0.0001113273988608       0.0008778807667720 0 0
C           4.9160898461716123     -11.3909050469472177      -3.3280862949166461      -0.0000847254376305      -0.0000748245760794       0.0003387633333794 0 0
H           5.7120715490839551     -11.3640300311547211      -4.0484158631054239       0.0004675941542387      -0.0006200710658105      -0.0009610003658335 0 0
Si          9.1465348858297233      -2.9335169604945479       9.4192241903694747       0.0000953209159969      -0.0000091148319930      -0.0001304267578555 0 0
C           8.6687360172874453      -2.1801181587802199      10.9981714046361212      -0.0000507866795528      -0.0000478246480392       0.0000234095274432 0 0
H           8.8735332273633372      -2.6179549054694564      11.9482274610569021       0.0007080820463795      -0.0002021988145908       0.0015786345869255 0 0
C           8.0672808067439981      -1.0206259124455883      10.7348330365829074       0.0001283860128812       0.0000095334540884      -0.0001095669564042 0 0
C           7.9470181106720448      -0.7099427921073963       9.2542683933377017       0.0000874013250272       0.0003544766276703       0.0000093194087037 0 0
C           8.2658980615650659      -1.7008541909631942       8.4145110946595647      -0.0000707066201851      -0.0000951646283123       0.0002963971830327 0 0
H           8.3842925438686322      -1.6351480806372789       7.3708840076484412      -0.0005167541836709      -0.0010897333062786      -0.0010738566930654 0 0
C           8.6377719769688834      -4.7238490016168448       9.3476383144519080       0.0001375808168890       0.0000175364198149       0.0000585057029264 0 0
C           8.4079824975240385      -5.3201374130326178       8.0994361504020489       0.0001120096323724       0.0002163215591471      -0.0002445138203817 0 0
H           8.4762249037859743      -4.7101561344355387       7.1946593329953838       0.0000410387230772      -0.0001516464384241      -0.0006278137579591 0 0
C           8.1743769359305762      -6.7281279186906113       7.9528413866951277      -0.0000955053395633       0.0000454265487690       0.0000158510083356 0 0
H           8.2083798417422038      -7.0994873384216897       7.0689871379121918       0.0002192518189659      -0.0008938424415435      -0.0007380008957428 0 0
C           8.1174066581706956      -7.5176261178667563       9.0640289355694570      -0.0000009959391659       0.0004220042909999      -0.0001167983143711 0 0
H           7.9812039887567243      -8.6556784388503178       8.9919468304147046      -0.0001233750147218       0.0001546819184484       0.0005197809026379 0 0
C           8.2274222249199109      -6.8851263119634147      10.3198165653154401       0.0001637156422708       0.0002837063854092       0.0001270633754506 0 0
H           8.2211916939225915      -7.5323156337724084      11.1229937692760146      -0.0004787812825598      -0.0016872546960705       0.0011947895866514 0 0
C           8.4846176090265732      -5.5199496800794536      10.4542353278740361       0.0002291099703418       0.0002607169172920      -0.0000925895880009 0 0
H           8.6279273582934763      -5.2326208420417037      11.4374305699778045       0.0001490865521562      -0.0006264459334356      -0.0000595959187668 0 0
C           7.5154387233106048      -0.1458844577443236      11.8260324358671642       0.0002515293739990      -0.0000019800673670      -0.0000942304084459 0 0
C           8.0433918319441400       1.0865196071075893      12.2352041272916097      -0.0000076018964498      -0.0000743599124890       0.0001700451139433 0 0
H           9.0605410966026341       1.3345154187451820      11.8191250433991595      -0.0003196109301684      -0.0009804376848232      -0.0000444819966178 0 0
C           7.4606854687109410       1.8586553787958497      13.2054529345160265      -0.0001220522048076      -0.0001567881173181      -0.0003057303806575 0 0
H           7.8959627071528153       2.8748611750705959      13.4165503964013162       0.0007834344749992       0.0016721840835351       0.0007567198235002 0 0
C           6.2412164186212733       1.4475919148798662      13.7800415644164733      -0.0004129451490687      -0.0004545732944610       0.0000375124407776 0 0
H           5.7790773930028507       2.0842149928080884      14.4495650517851324      -0.0006444865354588       0.0002215853514696       0.0007859982893825 0 0
C           5.7643663042010278       0.2325806994900607      13.4488273464853556      -0.0000960944739579      -0.0000973729020833      -0.0000516460606587 0 0
H           4.7602409964852308      -0.2264381336359988      13.7699139444370644      -0.0009303638474716      -0.0005140616719022       0.0007457031605613 0 0
C           6.3388055106532413      -0.5860628257897307      12.4578984678483060       0.0001058432447160      -0.0003006901268161       0.0001732046057059 0 0
H           5.9531090672926448      -1.5787150300879103      12.2221953165367445       0.0008510270714796      -0.0015661122824137      -0.0000274031590626 0 0
C           7.6581229681887839       0.6786762500758411       8.6909162098942527       0.0000589621362234       0.0000429731214102      -0.0003114332940805 0 0
C           8.2727210270010261       1.0162380088950707       7.5528742133041380       0.0001261423155366       0.0000707016726720      -0.0000535042608812 0 0
H           8.8242246792249297       0.2667802823155196       6.9784422571443789      -0.0002544134505847       0.0012610664312292       0.0011182715007955 0 0
C           8.2331168442116436       2.3301981800480465       7.0887833128103850       0.0001082751460561      -0.0000152219086633      -0.0002860585633309 0 0
H           8.6648359020016148       2.5601822430994052       6.0559393746350709      -0.0001618970992692       0.0009404292330090      -0.0003623643403820 0 0
C           7.4599680986854704       3.2330547435655266       7.7729193512863084      -0.0002388136523536      -0.0002395766568020       0.0000730147687112 0 0
H           7.2763106484502096       4.2369243227910145       7.3340980201994794      -0.0003373234921721       0.0005447755495119      -0.0001455664467278 0 0
C           6.8008279197379267       2.8761643203119673       8.9647608866651840      -0.0003517973086049      -0.0000003277231062      -0.0004291955747657 0 0
H           6.1922487142348581       3.6486725454230582       9.4008108963582124      -0.0004562375427033       0.0011279793086697       0.0010668666202192 0 0
C           6.8530186730426070       1.5593206121382970       9.3856381470573869       0.0001631481402312       0.0001119138127605       0.0002140592981956 0 0
H           6.3930143640583061       1.2518093587810433      10.2625287491700590       0.0006645272423981      -0.0008550398042499       0.0007044977799023 0 0
C          10.9318171068207892      -2.8122974162695562       8.9962885387627516       0.0000495896712268       0.0001086032452688      -0.0001085135904880 0 0
C          11.4806538365637110      -3.7996717649132603       8.2243170995246171       0.0000085284297760       0.0001367134696168       0.0001122290603422 0 0
H          10.9370165048384962      -4.7021984166013091       7.9517021192446622      -0.0000624613626546       0.0004862139452808      -0.0000045217954930 0 0
C          12.6929861549805540      -3.5422186445019013       7.5875983903823849       0.0001417187613636       0.0000736124658955       0.0000677735847186 0 0
H          13.1283217740906490      -4.3693277291359802       6.9144103840109006       0.0002308155079386      -0.0000562052295019      -0.0007921615738705 0 0
C          13.2419733186008646      -2.2558284499867471       7.5896660025805440      -0.0002849811569609      -0.0001194390670997      -0.0000305392905841 0 0
H          13.8616808777356049      -1.8687788211047769       6.6546857653983169      -0.0004465964849376       0.0010461588662346       0.0000719520756528 0 0
C          12.7086715329236846      -1.3050428374604854       8.4246782528513418       0.0002116773765272      -0.0001705864812403      -0.0000606336065906 0 0
H          12.9677810389634089      -0.2732361302785861       8.2422791391814929      -0.0003638645249747       0.0011915751715938       0.0000354302052101 0 0
C          11.5117875814464927      -1.5831443318086096       9.1067857931108929       0.0001828632986728      -0.0001869920185902       0.0002075012881890 0 0
H          10.8697793805253315      -0.7757750653433042       9.3447381899506894      -0.0009413621422099       0.0008656604093855       0.0001070744078620 0 0
Si         -8.7855413249759042      10.0473348047216682      -0.2076683949131840       0.0001153484468084      -0.0001160863759692      -0.0002170626958683 0 0
C         -10.6076057495609959      10.1104113862088152      -0.6338538676526051       0.0002054140411420      -0.0000619528209948       0.0000449625254978 0 0
H         -11.2819155568737877      10.4990192793082215       0.0498834868317865       0.0009620498688604      -0.0005402557351687       0.0002725669691123 0 0
C         -10.8054310143206145       8.8513338935774257      -1.1086585840441294       0.0001241548676959       0.0001908310931779       0.0001232696903898 0 0
C          -9.6199401562301929       8.3238994247586042      -1.9503629970765495       0.0000613100526612      -0.0000043041953364       0.0001398351609989 0 0
C          -8.4126044901405130       8.7000518942605751      -1.4225124531547395       0.0001134242529834      -0.0002023692709675      -0.0000783098755108 0 0
H          -7.5109452110219745       8.6674385777604837      -2.0520829343174389       0.0008650925675209       0.0009636397086339       0.0007191228795683 0 0
C          -7.7596728960107892      11.5304119572694450      -0.4779061303998568       0.0000779329826146      -0.0000773152816105      -0.0002122186125991 0 0
C          -7.1578717595702894      11.8237681080431045      -1.6696705728190306       0.0002509757784604      -0.0004289370645621       0.0000607745485788 0 0
H          -7.5022124630611824      11.3012621544160421      -2.5677472077396035       0.0007139270462767       0.0005564737887979       0.0016040144009853 0 0
C          -6.2154533751847074      12.8922710158241696      -1.7409665128036131       0.0000949036560872       0.0000455335885136       0.0000573774538319 0 0
H          -5.6548932301348707      13.0366381238751377      -2.7286519623629850      -0.0002989884440273       0.0004315044774524       0.0005086639236613 0 0
C          -6.0725321728563380      13.7355979655049136      -0.6000386162635150      -0.0001103436863728      -0.0000336988224287      -0.0002623615570478 0 0
H          -5.4301368700145645      14.5650621178626469      -0.6638795504329741       0.0006781662190281       0.0012909931981721       0.0008870548051429 0 0
C          -6.7124312517465530      13.4189559847784228       0.5530405743779395      -0.0000125909093818       0.0003699051765592       0.0001698874765259 0 0
H          -6.5983913112288057      14.0172079462313270       1.4105902359018176      -0.0006270999117407      -0.0011515438140773      -0.0003774346143400 0 0
C          -7.4890353201016238      12.3051102436359656       0.6323178105372399       0.0000659614180166      -0.0001767107100237       0.0003453618257329 0 0
H          -7.9316050862066598      12.0399610850709688       1.5274269733373729       0.0003525266883455       0.0003495359281365      -0.0001828395529830 0 0
C         -11.9112072714525397       7.9580667596852015      -0.6387297747310683      -0.0001145448275124       0.0001054969911418       0.0002871934097165 0 0
C         -11.8372017560691329       7.4375533591666381       0.6873016550253858       0.0000983038707315       0.0003050038067611      -0.0001937750490051 0 0
H         -11.0711689513291152       7.7534628584008534       1.3229245632752287       0.0013895694884642       0.0006093589188848       0.0004202134851076 0 0
C         -12.6966624189250741       6.4838640044834843       1.0937462862611544      -0.0003691927804523      -0.0003027892337849      -0.0000084974798936 0 0
H         -12.6726534902284254       5.9317005519847568       2.0547878838691171       0.0008913466160053       0.0001613853843829       0.0008675942278010 0 0
C         -13.6635159464310210       6.0491464849888974       0.2108716876107323       0.0001858247703933       0.0000858340571535       0.0001129765666075 0 0
H         -14.4290300474835860       5.3232591483120579       0.4870237357398942      -0.0015757063723507      -0.0014256190363416       0.0001277630979016 0 0
C         -13.7206062481821895       6.4871861623704410      -1.1203059450606419       0.0001396206634552       0.0004306875559133      -0.0002480214541418 0 0
H         -14.3574789016967479       6.0874840954644336      -1.7965466937910295      -0.0002345971902758      -0.0009997425401108       0.0004353679318822 0 0
C         -12.8379891588285506       7.5038422250703247      -1.5361695369835202      -0.0002995532239932      -0.0002195114554274       0.0002634892561753 0 0
H         -12.8765364650314638       7.7136123003849306      -2.6491191875019857       0.0002898552962853      -0.0008218739689268      -0.0002299751269961 0 0
C          -9.8447197774904929       7.4870895462053655      -3.1538973689764327      -0.0000079424106028      -0.0000574930168890       0.0001594837226901 0 0
C         -10.6284871862087869       7.9581109035141075      -4.1698095984919590       0.0001422752955688      -0.0002559196780992       0.0000969816654621 0 0
H         -11.3060175529476137       8.7865078843697564      -4.0286068054859481      -0.0009889796298254       0.0010324897891332       0.0000622281162421 0 0
C         -10.6867943388918114       7.3149945565131897      -5.3652981940383482       0.0000067168198919      -0.0002012313256527       0.0002684993563322 0 0
H         -11.3629497761599971       7.6661662791785856      -6.1812230574752656      -0.0009833760823977      -0.0004609103502950      -0.0003843595931664 0 0
C         -10.0823448160162599       6.1082888595411582      -5.5011231928258182       0.0000709540031561      -0.0000013719679575       0.0000245285683594 0 0
H         -10.2467529213512645       5.6477939986271872      -6.4881013423996343       0.0001194324855911      -0.0002766792318669       0.0020820020538448 0 0
C          -9.2956209804807308       5.5990279271466292      -4.5168143513135295       0.0003811152432013       0.0000855851523270       0.0001419503127405 0 0
H          -8.9175946163687598       4.6010084213708033      -4.7624652638536782      -0.0000174260556235       0.0001236795785368      -0.0000817014074873 0 0
C          -9.1541218642884363       6.3354416492896020      -3.3739111211650985       0.0001969318730470       0.0002946468355231      -0.0001330295525974 0 0
H          -8.5552352788985075       5.7606013588324521      -2.5569024622242726      -0.0002909729557468       0.0004674048697604      -0.0000125586540464 0 0
C          -8.4103944862664335       9.5013624670037640       1.4761100954909916      -0.0003967012804036       0.0000447550462101       0.0000423748624587 0 0
C          -9.4799693146311625       9.6027265845176153       2.3466943304693326      -0.0002413182604834       0.0004765856566926       0.0000121142197370 0 0
H         -10.3887381622090746       9.9961811336282089       1.8850466333093698       0.0016010127577150      -0.0005061316472396       0.0008171720198598 0 0
C          -9.2441266574490601       9.4768413442907118       3.6998313265073168       0.0003013544574622      -0.0001339695724982       0.0002105195773310 0 0
H         -10.0933151868355200       9.4286537949987768       4.3606135552383725      -0.0009004652743732      -0.0003964523941503      -0.0006027143596200 0 0
C          -7.9347965602296586       9.2389304739523137       4.1549264920865214      -0.0003990269450021       0.0000653507560964      -0.0001961423477817 0 0
H          -7.8706262430272469       8.9668072784688082       5.2245810074190588       0.0006307018526750      -0.0012627339230697       0.0008983714536986 0 0
C          -6.8926068675369354       9.1951995501670858       3.2766324588988889       0.0000921145222960       0.0000368876493169      -0.0002329335793457 0 0
H          -5.8800419004452076       9.0916454990132465       3.5933491923991667       0.0003152825347117      -0.0005014851773003       0.0004165471552989 0 0
C          -7.1292052295951445       9.3507064886755860       1.9104038355487727       0.0000528449059394      -0.0002094471296968      -0.0001196282104641 0 0
H          -6.3866222744175580       9.3503649152955948       1.1570158166195399      -0.0014291246637168      -0.0001411615647628       0.0000716739479808 0 0
