1917 

Si          0.2796569470781218      -0.3618537219852502      -1.1520770070096233       0.0000000000000000       0.0000000000000000       0.0000000000000000 0 0
C          -1.4499068553065264       0.2259057840457466      -0.8406924402368858       0.0000000000000000       0.0000000000000000       0.0000000000000000 0 0
C          -2.4086115392473015       0.2871221391849890      -1.9164267298412270       0.0000000000000000       0.0000000000000000       0.0000000000000000 0 0
C          -2.1952322503023538      -0.5683964969362165      -3.0559071350626237       0.0000000000000000       0.0000000000000000       0.0000000000000000 0 0
H          -1.3750978220361691      -1.1414076004240403      -3.0071594336796590       0.0000000000000000       0.0000000000000000       0.0000000000000000 0 0
C          -3.1848327380489430      -0.4737255715225785      -4.1914341099346490       0.0000000000000000       0.0000000000000000       0.0000000000000000 0 0
H          -2.9177603960699301      -1.1240179886891219      -4.8659758091044036       0.0000000000000000       0.0000000000000000       0.0000000000000000 0 0
C          -4.2438251948953205       0.4090886539578928      -4.1311860064083170       0.0000000000000000       0.0000000000000000       0.0000000000000000 0 0
H          -4.8344905192082575       0.5132542663663653      -5.0903928990761944       0.0000000000000000       0.0000000000000000       0.0000000000000000 0 0
C          -4.4618080227412875       1.2472095298307480      -3.0393643670769581       0.0000000000000000       0.0000000000000000       0.0000000000000000 0 0
H          -5.2861327506950690       1.9992283622701414      -2.7941620328620083       0.0000000000000000       0.0000000000000000       0.0000000000000000 0 0
C          -3.5696637015790511       1.1695423340469375      -1.9093329566127792       0.0000000000000000       0.0000000000000000       0.0000000000000000 0 0
H          -3.7841894393354920       1.8326633172571771      -1.0911585635005245       0.0000000000000000       0.0000000000000000       0.0000000000000000 0 0
C          -1.5188274081993320       0.6513314461775330       0.4100751899898469       0.0000000000000000       0.0000000000000000       0.0000000000000000 0 0
C          -2.7675279491100273       0.9495430336708477       1.1561582423350281       0.0000000000000000       0.0000000000000000       0.0000000000000000 0 0
C          -3.7766225455110014       0.0353684116524988       1.2953760595081825       0.0000000000000000       0.0000000000000000       0.0000000000000000 0 0
H          -3.8598813810995658      -0.8822964080144136       0.8393313492233787       0.0000000000000000       0.0000000000000000       0.0000000000000000 0 0
C          -5.0365365320782782       0.4161642409338242       1.9188876509707988       0.0000000000000000       0.0000000000000000       0.0000000000000000 0 0
H          -5.7397588774905870      -0.5193176744377404       1.8862922761152241       0.0000000000000000       0.0000000000000000       0.0000000000000000 0 0
C          -5.1653517714092825       1.6728108240015604       2.4531572156503962       0.0000000000000000       0.0000000000000000       0.0000000000000000 0 0
H          -6.0596992273499293       1.9920166946360016       2.9603204725597294       0.0000000000000000       0.0000000000000000       0.0000000000000000 0 0
C          -4.1399541903603332       2.6567825261288771       2.3021338747468221       0.0000000000000000       0.0000000000000000       0.0000000000000000 0 0
H          -4.2778812052381223       3.6658596278028543       2.7893443238507025       0.0000000000000000       0.0000000000000000       0.0000000000000000 0 0
C          -3.0322155868771787       2.2906052300950233       1.6286291762182792       0.0000000000000000       0.0000000000000000       0.0000000000000000 0 0
H          -2.0122836968761337       2.8339865631139869       1.5845126184945784       0.0000000000000000       0.0000000000000000       0.0000000000000000 0 0
C          -0.3195129586253600       0.5340444509521909       1.2466978947549840       0.0000000000000000       0.0000000000000000       0.0000000000000000 0 0
C          -0.2314718296320386       0.8674509573963807       2.7049714620875669       0.0000000000000000       0.0000000000000000       0.0000000000000000 0 0
C           0.5238835316553612       1.9575573809214841       3.1352578597515581       0.0000000000000000       0.0000000000000000       0.0000000000000000 0 0
H           1.1551642933656243       2.6536980898306268       2.2715973222322603       0.0000000000000000       0.0000000000000000       0.0000000000000000 0 0
C           0.5414705955410248       2.2084166205127342       4.4646249326456307       0.0000000000000000       0.0000000000000000       0.0000000000000000 0 0
H           1.2703315743660131       2.8483961460505309       4.7868977842083957       0.0000000000000000       0.0000000000000000       0.0000000000000000 0 0
C          -0.1699484072498176       1.5611790447550522       5.4669400282055847       0.0000000000000000       0.0000000000000000       0.0000000000000000 0 0
H          -0.1404367400939766       1.7527510218391171       6.5359046451654308       0.0000000000000000       0.0000000000000000       0.0000000000000000 0 0
C          -1.0531943590515755       0.5155563926675431       4.9419589335276086       0.0000000000000000       0.0000000000000000       0.0000000000000000 0 0
H          -1.6770292014258246      -0.1903710244885453       5.8000207116368117       0.0000000000000000       0.0000000000000000       0.0000000000000000 0 0
C          -1.1072512351378823       0.1931027913920165       3.5239631611226869       0.0000000000000000       0.0000000000000000       0.0000000000000000 0 0
H          -1.7214058526278535      -0.7038402104112613       3.1934351226147228       0.0000000000000000       0.0000000000000000       0.0000000000000000 0 0
C           0.8888655053167369       0.1858470601709481       0.5422144420295254       0.0000000000000000       0.0000000000000000       0.0000000000000000 0 0
C           2.1468928515968564      -0.0248279600895263       1.0820627643134699       0.0000000000000000       0.0000000000000000       0.0000000000000000 0 0
C           3.3698109429775300       0.2788608880034396       0.3292783258140979       0.0000000000000000       0.0000000000000000       0.0000000000000000 0 0
H           3.2258211408725934       1.0565451290934025      -0.5948270353781613       0.0000000000000000       0.0000000000000000       0.0000000000000000 0 0
C           4.6033784532046269      -0.0934732243726799       0.6949950360967208       0.0000000000000000       0.0000000000000000       0.0000000000000000 0 0
H           5.5739821507909610       0.2095282898328659       0.2188270907297714       0.0000000000000000       0.0000000000000000       0.0000000000000000 0 0
C           4.8527447816566571      -0.7593692325506574       1.9031380623993854       0.0000000000000000       0.0000000000000000       0.0000000000000000 0 0
H           5.8715099756187996      -1.2320842974488055       1.9641250512331538       0.0000000000000000       0.0000000000000000       0.0000000000000000 0 0
C           3.7717249084720379      -1.2141448687950955       2.6816852529949706       0.0000000000000000       0.0000000000000000       0.0000000000000000 0 0
H           3.7501592545488833      -1.5008928528731253       3.6889052824946447       0.0000000000000000       0.0000000000000000       0.0000000000000000 0 0
C           2.4643014145731144      -0.8143974163930103       2.2067449108116826       0.0000000000000000       0.0000000000000000       0.0000000000000000 0 0
H           1.7703845920403918      -1.1416240702210843       2.7513302674430626       0.0000000000000000       0.0000000000000000       0.0000000000000000 0 0
C           0.6007942699536954      -2.2224903211732805      -1.4328914014240492       0.0000000000000000       0.0000000000000000       0.0000000000000000 0 0
C           1.8582957817861736      -2.7185180476513828      -1.6542011895550601       0.0000000000000000       0.0000000000000000       0.0000000000000000 0 0
H           2.5546696399211370      -1.8680128476510092      -2.1569325489535061       0.0000000000000000       0.0000000000000000       0.0000000000000000 0 0
C           2.1115619051976431      -4.0929974396843010      -1.6463643594678601       0.0000000000000000       0.0000000000000000       0.0000000000000000 0 0
H           3.0767281187677042      -4.3921795572816542      -1.8772858455325441       0.0000000000000000       0.0000000000000000       0.0000000000000000 0 0
C           1.0630659739298256      -5.0058503167364172      -1.4302186772068843       0.0000000000000000       0.0000000000000000       0.0000000000000000 0 0
H           1.2333836861898799      -6.0425768031129410      -1.4408835892164067       0.0000000000000000       0.0000000000000000       0.0000000000000000 0 0
C          -0.2346489826397757      -4.4977927880214184      -1.2172807290422849       0.0000000000000000       0.0000000000000000       0.0000000000000000 0 0
H          -1.1577767699646717      -4.8870945099602476      -1.0533491881463739       0.0000000000000000       0.0000000000000000       0.0000000000000000 0 0
C          -0.4929873470553030      -3.0759099883470293      -1.1699257618823182       0.0000000000000000       0.0000000000000000       0.0000000000000000 0 0
H          -1.4117448761487896      -2.6151591389106565      -1.0250876871127872       0.0000000000000000       0.0000000000000000       0.0000000000000000 0 0
C           1.1491997032423278       0.6411423943870922      -2.6102328652690101       0.0000000000000000       0.0000000000000000       0.0000000000000000 0 0
C           1.2554619388491677       2.0670199321953255      -2.4326435793991035       0.0000000000000000       0.0000000000000000       0.0000000000000000 0 0
H           0.6397360151253721       2.7275711101732529      -1.7742604241939084       0.0000000000000000       0.0000000000000000       0.0000000000000000 0 0
C           1.8767678917165895       2.8050404244225682      -3.4666819433433282       0.0000000000000000       0.0000000000000000       0.0000000000000000 0 0
H           1.9802582928372203       3.8811106366752313      -3.2278493014249356       0.0000000000000000       0.0000000000000000       0.0000000000000000 0 0
C           2.5547893591438893       2.1625950520825938      -4.6007375940993906       0.0000000000000000       0.0000000000000000       0.0000000000000000 0 0
H           3.1191869997597053       2.7819297044343401      -5.4398629785855430       0.0000000000000000       0.0000000000000000       0.0000000000000000 0 0
C           2.4553649534786572       0.8192646012707971      -4.6476146199143695       0.0000000000000000       0.0000000000000000       0.0000000000000000 0 0
H           2.8013587226903205       0.2696564410295643      -5.4873502824478777       0.0000000000000000       0.0000000000000000       0.0000000000000000 0 0
C           1.8197874896531037       0.0239438112448198      -3.7438839104920287       0.0000000000000000       0.0000000000000000       0.0000000000000000 0 0
H           1.7673982018543732      -0.9287248782228161      -3.8196262039772204       0.0000000000000000       0.0000000000000000       0.0000000000000000 0 0
Si         -2.4316247788611745      -6.3241337708205556       7.8878007499231755      -0.0002197001348135      -0.0001015921657725       0.0000797799894223 0 0
C          -0.5637003241331894      -6.0071559113062794       7.7438821434373297      -0.0002054950887450       0.0002223864181970      -0.0002033125099252 0 0
C           0.4197703720142306      -5.9762466913728298       8.8153213529732799       0.0000644456355700       0.0001772924831630      -0.0001303920001098 0 0
C          -0.0985170247357566      -6.1472015478602744      10.1205874912651215      -0.0000417865337645       0.0000084296278513      -0.0001299887568497 0 0
H          -1.1051632149740542      -6.3174754287236148      10.1534061764384447       0.0007025582211769       0.0007397647701602      -0.0008518938419213 0 0
C           0.7163008446829192      -5.9964211936526839      11.2319232963321927       0.0001026227720816       0.0000246795155991       0.0000910987741752 0 0
H           0.1973727490743067      -6.1200587571546956      12.1369186831794842       0.0000751893642137      -0.0006291653818261      -0.0010865802187022 0 0
C           2.0601540111309751      -5.6913202391247504      11.1387339675168242      -0.0000614270893550       0.0000659315808013       0.0000519228847843 0 0
H           2.6155776491151168      -5.3754984816482629      12.0249926985387550       0.0023239044861017      -0.0006170113187096       0.0021671759480409 0 0
C           2.6015971020972724      -5.5693713234466289       9.8542120004412066      -0.0000349595235939      -0.0000508922747997       0.0000399150342951 0 0
H           3.6970994237814638      -5.4227580384207323       9.6996268857669712       0.0009101240146230      -0.0006013452651476      -0.0005762120280159 0 0
C           1.7810385775874771      -5.7889701390856816       8.7284015508463320      -0.0002634548283430      -0.0001133493107125      -0.0001258571620818 0 0
H           2.2492287310469798      -5.7082511900476938       7.7321068872066352       0.0002050500621454      -0.0011545707029678      -0.0001170259891669 0 0
C          -0.4053514475001737      -5.5100721294830821       6.5091959775449908      -0.0000982778786731      -0.0001933657052247      -0.0000387499100368 0 0
C           0.8612307041424467      -5.0295901878600739       5.8113922832445812       0.0001454532147458       0.0002512210778098       0.0001651414877845 0 0
C           1.1003920136768353      -3.6792695759128926       5.7648785407368361       0.0000013840992904      -0.0002941243842809      -0.0002822220730533 0 0
H           0.5624968951120105      -3.0160654210640541       6.3573558211416179      -0.0002803017690230       0.0002384302614044       0.0021784799755179 0 0
C           2.1380454707695495      -3.1024266229700541       5.0093672832531864       0.0000415780509308      -0.0000635658502393       0.0001667956587968 0 0
H           2.2653597050497796      -2.0591885737054305       4.9587415930138405       0.0007848418573981      -0.0006396939629043       0.0002269548065518 0 0
C           2.8738383465338986      -4.0326539109113000       4.2288394346918201      -0.0001051743390723       0.0001038500705005      -0.0001059287303520 0 0
H           3.6440720335652808      -3.6224299988264330       3.4573279136059845       0.0011153678769769       0.0001768335512987       0.0008244040788140 0 0
C           2.7197779462282203      -5.4081962989428369       4.3203236117422801      -0.0003562397972117       0.0001806574221371       0.0000446117516280 0 0
H           3.3962551979556617      -6.0096728646224449       3.8448293142638907       0.0014460379999758      -0.0002246984241311       0.0003737422447258 0 0
C           1.7198504527862259      -5.9161676948162807       5.1586652528432282       0.0000463160528992      -0.0004500148077932      -0.0000816597118879 0 0
H           1.6419925148172498      -7.0612259337260186       5.2175844446628430      -0.0011010988068805       0.0000730331624493       0.0012299539502716 0 0
C          -1.5296413115888896      -5.4144302311730463       5.6200059183515618       0.0000516154268569      -0.0000894330621395      -0.0001598837222957 0 0
C          -1.5227546011290485      -4.6354865184026854       4.3694929267517306      -0.0002799223061839       0.0000642328757669       0.0003329201322613 0 0
C          -1.0038248017549829      -5.1705316622648967       3.1796795585057742       0.0000594108820218      -0.0002450934904329      -0.0002404716958652 0 0
H          -0.4936295083365788      -6.1283404461176687       3.1930824220860394      -0.0001115184280058       0.0001072442924123       0.0001069145161712 0 0
C          -1.0954867600957212      -4.4567471251005717       2.0351615737769921       0.0002617013826696      -0.0000157609560869      -0.0001386191338961 0 0
H          -0.7046857673000319      -4.8017323079424870       1.0897795470069058       0.0000259237456367       0.0001877495288653       0.0002155827191604 0 0
C          -1.8082392396488325      -3.2575282116576458       1.9613693327212518       0.0001859205404968      -0.0001330834314933      -0.0001382320004157 0 0
H          -2.0128246351336356      -2.6577403386971170       0.9631398512014329       0.0004218156007738      -0.0002268183454851       0.0008258736321655 0 0
C          -2.4273340335253812      -2.7651910531227211       3.1476602740409918      -0.0001698599182417       0.0001271795213127       0.0000948670181762 0 0
H          -3.1625526334362912      -2.0601714445929309       3.1076465535653064       0.0013565201906691      -0.0012177407417981      -0.0008017080616496 0 0
C          -2.2123383974605835      -3.3920976479399920       4.3533578713887078      -0.0000360771611335      -0.0001452230384764       0.0002042831391119 0 0
H          -2.8316327319198478      -3.0620518846001374       5.1631349021397162      -0.0001098803873354       0.0011170727690008       0.0003079945039352 0 0
C          -2.7596655246615667      -6.0044791794053216       6.0586790007632612      -0.0000190540058079      -0.0002357270092788      -0.0001354688369413 0 0
C          -4.0673155279603277      -5.9838116565415165       5.3271899458561069      -0.0002394833364366       0.0000525052860248      -0.0000348348948716 0 0
C          -4.1791011020371274      -5.7452666544481845       3.9455611271654920      -0.0000053711080608      -0.0000040615163625       0.0000189057868843 0 0
H          -3.3775079769659229      -5.5322188557232508       3.2944292639674346      -0.0004258820587451       0.0009040969895524      -0.0005676993119123 0 0
C          -5.3907794812529666      -5.8310549800566092       3.3010975101725477       0.0004611013240780       0.0002506118707877      -0.0001225139600028 0 0
H          -5.4569131596645226      -5.7055387270782569       2.1598548108106925       0.0001305609625858      -0.0005399170133723       0.0010442243313437 0 0
C          -6.5187453798335886      -6.1908062024652084       4.0122326857678061       0.0000846213235122       0.0003578197907362       0.0002194927995719 0 0
H          -7.4779327783991629      -6.2258582359466281       3.4940666344477092       0.0013081444947647      -0.0005073022001403       0.0008629588920841 0 0
C          -6.4807243333490803      -6.4448855478080640       5.3763407899011311       0.0001116857255409      -0.0000821181746091       0.0001025771235764 0 0
H          -7.4073396782427681      -6.6065371452999582       5.8791362502065105       0.0000660082875220       0.0004151184817008       0.0002875453474317 0 0
C          -5.2329509625588262      -6.2958670219743915       6.0660870246226635       0.0001119801791712       0.0000746162585383       0.0001480033266508 0 0
H          -5.2418229120419602      -6.4783482329571811       7.0937507052381319      -0.0016917941298352      -0.0004024837735727       0.0008361814241381 0 0
C          -3.1540843560419911      -4.8154708150897330       8.7203762896188550       0.0000908866118107      -0.0001801905430733       0.0003921154041838 0 0
C          -2.8780221598120299      -3.5037890604902824       8.4298494526996635      -0.0001687923738877       0.0000138908499413      -0.0001504153034962 0 0
H          -1.8851426725548563      -3.2600514859588250       7.9824034761279483       0.0006210996064146       0.0013813582340030      -0.0004890877676277 0 0
C          -3.6441512567442733      -2.4411659183539847       8.8696532333813103       0.0000174079149636      -0.0002172682425029       0.0003353229807307 0 0
H          -3.1931117162800922      -1.4192451711186089       8.8043173002771180       0.0003173722199134       0.0008076560221273       0.0000822277034231 0 0
C          -4.7677628108712415      -2.6756570744002266       9.6069640085543853      -0.0000085406708922      -0.0002394583814800      -0.0004013693960849 0 0
H          -5.2934064934117444      -1.8531029979612859       9.9830248548326299      -0.0008963711276437       0.0001030645305136       0.0007850373958046 0 0
C          -5.1595086606269467      -4.0042226422901530       9.8843684480406662      -0.0003428657474194      -0.0001946965644225       0.0003220195211093 0 0
H          -5.9796963911360450      -4.3243281073935460      10.5298817051593119       0.0003747220203677       0.0008517030831597      -0.0003206914817616 0 0
C          -4.4087381540398018      -5.0630749335961873       9.3657586325077915       0.0000747467592424      -0.0001243816426580      -0.0000641507533183 0 0
H          -4.5464411701554646      -6.0271808441006396       9.6811367035722071      -0.0002877598330738       0.0013873369272814       0.0005121852556880 0 0
C          -2.8273704343848598      -8.1092053899192855       8.3746897341028745       0.0000447208240188       0.0001534917646194      -0.0001205061839580 0 0
C          -2.9406580512168716      -9.1099979654004670       7.4513026671856508      -0.0000601827408912       0.0001720661406051       0.0000962039375434 0 0
H          -2.8023544394945090      -8.8955350653363574       6.3347582326963652       0.0004716041610557      -0.0007378337057476      -0.0006173971090075 0 0
C          -3.2133443580733019     -10.4119008395869415       7.8213421607984159       0.0000847878261131      -0.0002056028715096      -0.0002960461743881 0 0
H          -3.3536148690838190     -11.1388575647560248       7.0192251213811634      -0.0003981016726037       0.0013592341177112       0.0024688697965576 0 0
C          -3.3070198918677591     -10.8163513399773876       9.1152823197232333       0.0000172972839025      -0.0001384076279816      -0.0000641264436736 0 0
H          -3.6035632053461830     -11.7915163526878004       9.5146068286265830       0.0010614737085261       0.0006078123042489      -0.0003149587959170 0 0
C          -2.9265796146889977      -9.8955430242596414      10.0681098533630173       0.0001051595499313      -0.0001418780048580      -0.0000544631552310 0 0
H          -2.7131315182004005     -10.1990979216682156      11.1165234065563983      -0.0005224710364029       0.0002224666453815      -0.0017105172325596 0 0
C          -2.7703099331938597      -8.5109705501951183       9.7236036108008310      -0.0002201354130766      -0.0000394169837472       0.0001875899653803 0 0
H          -2.4520801562200254      -7.7643093018040892      10.4669265777877172       0.0001737990162488      -0.0000986942788174       0.0011338006369943 0 0
Si         -1.4493770896436287      -1.7751432675419854      -7.7251777798431247       0.0001241199172590      -0.0000699121179474      -0.0000073413494480 0 0
C           0.0384587379465589      -2.7040257391568843      -8.5092141550290563       0.0000920260167136       0.0001807838089381      -0.0002564763598391 0 0
C           1.5113554906633391      -2.7523218422704683      -8.1137772236684143      -0.0000516070857636       0.0002286110080218       0.0002754633554313 0 0
C           2.0403991024238120      -1.5344069274385643      -7.6438962525503245      -0.0002564151109150      -0.0000575818447342      -0.0004592997140050 0 0
H           1.2593674763821767      -0.7037113701970591      -7.3547878071859323      -0.0008046796167929       0.0010849628060330       0.0000297162375491 0 0
C           3.4213741744604262      -1.3858059127932265      -7.3825254986614954       0.0001683650407928       0.0000858793937425      -0.0001249679962532 0 0
H           3.7717444947263452      -0.3570726260177028      -6.9169634679065579       0.0001724292302720      -0.0009568200163185       0.0000359652416078 0 0
C           4.3122690254115854      -2.3520694480383271      -7.6204738119306779       0.0002228631681952      -0.0004238545667210      -0.0001529379427338 0 0
H           5.4344973537388812      -2.3611861198263790      -7.3933148893098153      -0.0012347646084221       0.0007706824181901      -0.0008492200872902 0 0
C           3.8442111524948777      -3.5506181519448359      -8.2114060786424208       0.0002657390028923       0.0002247213909630       0.0000517971730930 0 0
H           4.5233351065943381      -4.4306694806522549      -8.3950648891774744      -0.0002688972669060       0.0006369998404176      -0.0003243050088318 0 0
C           2.4806673931284000      -3.7774302325435589      -8.3828290257277480      -0.0000537530203673      -0.0000356926888571       0.0000585001766685 0 0
H           2.0580659274163864      -4.7426648614256690      -8.7177382753617128      -0.0000669862829689       0.0019438350009023      -0.0001944455237504 0 0
C          -0.4838893960055528      -3.3689331274953616      -9.5935455844662272      -0.0002777041266286      -0.0002915059972671      -0.0001614102583726 0 0
C           0.2854796240961055      -4.2621835990278996     -10.4812109590795277       0.0001948250577352      -0.0000900379501426       0.0003490688178741 0 0
C           1.0722935021485300      -3.7345790638506942     -11.4936936243236492       0.0000558335563017       0.0000194985934270      -0.0005958842000305 0 0
H           1.1253446847685049      -2.6194886810809819     -11.6983779826174015       0.0004426224713270      -0.0003173621240419       0.0005333067813959 0 0
C           1.8684944527448164      -4.5196026674896057     -12.2972006398413498      -0.0004921270443291      -0.0001996041532349       0.0000568226613428 0 0
H           2.5306037343840644      -4.1530190760729111     -13.0583992772905351       0.0013776292362863       0.0003815154778940      -0.0000145371219333 0 0
C           1.8831565225839386      -5.9043721685968160     -12.1471257300244666      -0.0002495581033248       0.0003014525519442       0.0001135080375479 0 0
H           2.4082903182560687      -6.4553660131216555     -12.8410823889657504      -0.0001688861297233      -0.0010634451767412      -0.0004979208729353 0 0
C           1.1630509642106897      -6.4804792624916701     -11.0683895669265553      -0.0000087210737040      -0.0002949637853811       0.0002415308028168 0 0
H           1.2255759141611764      -7.5028204945197228     -10.7980107615472853       0.0002544271311603      -0.0004613833654852       0.0000458094202165 0 0
C           0.4005026579823519      -5.6451743929269407     -10.2498618848579959      -0.0001133463277261       0.0003528958918914      -0.0000160927253586 0 0
H          -0.1138379076384284      -6.1609404268617922      -9.4600175417569385       0.0010238063581059       0.0004315233361349      -0.0003429980071087 0 0
C          -1.9418827213112939      -3.1547481319170223      -9.9111344521967233       0.0002517144513800      -0.0002124244226528      -0.0003990548081388 0 0
C          -2.5455461574955831      -3.9962904537602926     -11.0122830998909755       0.0000441841700506      -0.0002898930600923       0.0001036848303587 0 0
C          -3.3148926749338350      -5.0631052819577853     -10.6410770471452878       0.0000133805952523       0.0001495087330918      -0.0001209308660631 0 0
H          -3.5274396570600404      -5.3120027039559679      -9.6049149311334094      -0.0011770387221693      -0.0012532879354106       0.0005802932088879 0 0
C          -3.8819905391598959      -5.9591438754113302     -11.5523756616101227       0.0000817714359384       0.0001441858782842      -0.0000720011911175 0 0
H          -4.4967021152577722      -6.8611267080520015     -11.3611073483845022       0.0001208268920347      -0.0008511812021398      -0.0004875692685853 0 0
C          -3.6654895908187726      -5.7192233934785914     -12.9175985578857127       0.0000536783769677       0.0003561952138161       0.0002143425611147 0 0
H          -4.0089548072249297      -6.3748322003242359     -13.6492729630632610       0.0014058339481794      -0.0016600541729749      -0.0013077923476231 0 0
C          -2.8966405742929169      -4.6030799972373169     -13.2640633515369988      -0.0000815216111825       0.0006049469886359      -0.0000938397794294 0 0
H          -2.8666595212767656      -4.5062488778010827     -14.3504499640631504      -0.0001965826947412      -0.0002404185472361       0.0015066508642506 0 0
C          -2.3087681242385210      -3.7675516165920766     -12.3480952465674676      -0.0000226988104118       0.0000834803251866      -0.0001589161276851 0 0
H          -1.7639026512350351      -2.9356600159625330     -12.7328155889634864       0.0002748842937927      -0.0001991111726852      -0.0011936717595540 0 0
C          -2.5769273257963912      -2.2043181645945493      -9.1936258700807052      -0.0001636695599663      -0.0000089983377135      -0.0001106723543869 0 0
C          -3.9724243870252836      -1.7317801521330822      -9.2481211069061651       0.0000042400816266       0.0001953768199042       0.0000069333719810 0 0
C          -4.4870277185272496      -0.9660561415421606      -8.2282288184657482       0.0001458166982189      -0.0001216318892036       0.0000990354374168 0 0
H          -3.9934421108589224      -0.7704901105920506      -7.2262473879419646      -0.0009390380497938       0.0002731566625810      -0.0006338904361120 0 0
C          -5.8780501085709620      -0.4561734174615717      -8.3635659549938151      -0.0000622034462807       0.0001857649288711       0.0000417232756351 0 0
H          -6.2278806531811775       0.0662379648090741      -7.4132159802122279       0.0000758909804644      -0.0012196618088985      -0.0008281341462052 0 0
C          -6.4596623998442588      -0.5784094781237461      -9.5867995809040742       0.0000616798284641      -0.0003256769529073      -0.0000632058442374 0 0
H          -7.5236928481406196      -0.1079289236289056      -9.6955013157834440       0.0007594726269743      -0.0004576424478499      -0.0001591659588022 0 0
C          -5.8890159985809873      -1.2920050443157600     -10.6094424899710020       0.0000693537057361      -0.0000826127560387      -0.0001932973004048 0 0
H          -6.4686931189378996      -1.2991106618071919     -11.5455038976871389      -0.0005107571975089      -0.0002036018180046       0.0010600141152236 0 0
C          -4.6391430619239751      -1.9016581404647190     -10.4483894186941857       0.0002100330608182       0.0000500678995102      -0.0002531432450375 0 0
H          -4.2593742617856893      -2.4931894158192009     -11.2174159253207506      -0.0006429491955064       0.0008993235627333       0.0004882277975251 0 0
C          -1.4038271886844396       0.0600345806173058      -7.2477794355174350      -0.0001701600768289      -0.0003668184790164       0.0002046024181377 0 0
C          -1.8547315675246507       1.0569941450845088      -8.0267196650646468       0.0000242646870133       0.0000715892983964       0.0001776744053759 0 0
H          -2.2764492869677939       0.7623190148686921      -8.9977526390694411      -0.0014274500162259      -0.0005530678896857      -0.0011961389027432 0 0
C          -1.8033186458825687       2.3809690729236532      -7.6250790660988423      -0.0002647236487491       0.0000644159874547       0.0001194137077218 0 0
H          -2.2139374313484859       3.1305058654397766      -8.3089955427073665       0.0007222418954048      -0.0013313639379264       0.0004679161311633 0 0
C          -1.3056236351245722       2.7344478783010011      -6.4260174431609265       0.0000684018225405      -0.0000002828412720      -0.0004025634456139 0 0
H          -1.2915615419684174       3.8012122963019159      -5.9610156217703647       0.0003135910507701       0.0018451441190526       0.0010913678535977 0 0
C          -0.7134298622731531       1.7473856138262014      -5.6542199668255355       0.0002037932470340       0.0001892850864576       0.0001418291667788 0 0
H          -0.1986133499641302       1.9125871861348038      -4.7149407028242862       0.0002050880748987      -0.0002790186707566       0.0014697702214794 0 0
C          -0.7601908262583952       0.4295314456266831      -6.0525927436276685       0.0002657658542105       0.0000789374586260      -0.0001477007712727 0 0
H          -0.2961407193018539      -0.4513711091572011      -5.4913534209963011      -0.0005753128593366       0.0014655045081388       0.0002273729152319 0 0
C          -2.0100436878928001      -3.0535715793422451      -6.4261894682654050      -0.0002465199538717       0.0000594168875882      -0.0000648200947378 0 0
C          -2.7941475124337161      -4.1337144222490387      -6.6151422467207173      -0.0001651815844235      -0.0004578085533212      -0.0000408443706029 0 0
H          -3.2482950403060435      -4.3307653551748748      -7.6510646555020045       0.0020542952698616       0.0012500119030083       0.0011843397052429 0 0
C          -3.1486913651561914      -4.9912144311917102      -5.6263505310721476      -0.0001066595767938       0.0000601787853473      -0.0003888675073505 0 0
H          -3.8449319122875081      -5.8078667512850961      -5.8541383032997567       0.0000705073411085      -0.0001330488370465       0.0015448807120522 0 0
C          -2.5316455520084782      -4.9039061587983515      -4.3642355596303375      -0.0003419360602594      -0.0000591432758697      -0.0001772824576673 0 0
H          -2.8067971148008968      -5.5389261542340611      -3.5587611862130530       0.0005412698391320       0.0010553629595313      -0.0005406505864798 0 0
C          -1.5637140836078105      -3.9000774677358474      -4.2329428016685675       0.0000815113258799       0.0001474365161316      -0.0004399333771115 0 0
H          -0.9812746459507304      -3.7851935306031228      -3.3622598818573874       0.0007508199889059       0.0005550210499166       0.0004020390056541 0 0
C          -1.3577880287090192      -2.9487616649824084      -5.2150801241896776      -0.0002209981169918      -0.0001002901644012       0.0002356473795553 0 0
H          -0.6416344563295349      -2.1179195965583428      -5.1647416159285005       0.0011088246349963       0.0013198894083901       0.0000117120312757 0 0
Si         -0.5377084171660416       8.3595160284684376       1.1578718099785508      -0.0001374487351760      -0.0002063738512292      -0.0000286561715792 0 0
C          -1.7780624746459088       9.4324206913330908       2.0679566232492288       0.0002795330517294      -0.0002330761775617       0.0000077944630053 0 0
C          -3.1514878911983542       9.7786810936823745       1.5773111924985028      -0.0003051345137975       0.0000090619539136       0.0003290423339357 0 0
C          -3.8652095398616226       8.9763197794772314       0.7067865586572379      -0.0000955005260439      -0.0000622203472554       0.0001166503180527 0 0
H          -3.4726760762610365       7.9956283531246024       0.4473288497734473       0.0005808567769763       0.0000513163983912       0.0001886816527087 0 0
C          -5.0777520952438930       9.2826758390073216       0.2089533508190727      -0.0001446103548768       0.0003806781795989       0.0004882803200926 0 0
H          -5.7160792460935630       8.5770863122148846      -0.3930130474374413      -0.0015215004580443      -0.0007643272402200      -0.0001596256334926 0 0
C          -5.6639727590840820      10.5180441796091912       0.5672970562249094       0.0000485621550209      -0.0001312663712159      -0.0000828721636806 0 0
H          -6.6004314270180924      10.8220453888855985       0.1846937150394100       0.0001693955482915       0.0004087997208955       0.0002290844652072 0 0
C          -4.9953873723608746      11.3556740009441341       1.4714566587302622      -0.0000658879247803      -0.0003097420295633       0.0000153899887682 0 0
H          -5.4833351093555489      12.2329318114403183       1.8220645165693883       0.0000629173671566       0.0001332487879931      -0.0006555435248978 0 0
C          -3.7558227317673256      10.9878822988647240       1.9702746535330902      -0.0000222730487991      -0.0000619969456328       0.0001711921255341 0 0
H          -3.2990103229115744      11.6061061988783987       2.6080256525229686      -0.0019187197783601      -0.0003917187632571      -0.0005559686929703 0 0
C          -1.3700138746088484       9.6211120396850198       3.3428350135249869      -0.0001365386602933      -0.0001235433886823      -0.0001512646192331 0 0
C          -2.2274646584694948      10.1688530950862681       4.3599074501328605       0.0003722190056287      -0.0004403486164481      -0.0000547694675106 0 0
C          -3.4476152423389363       9.6985684279577118       4.8582779550641799      -0.0002391339812004      -0.0004200891321554      -0.0000583110914409 0 0
H          -3.8854972873740974       8.7171918660540069       4.5432334764323405       0.0009182486800179       0.0002295737552395      -0.0007057990484421 0 0
C          -4.1560428544007646      10.3791656553872365       5.8682350405190977      -0.0000847702492512       0.0003148434664156       0.0001374615729970 0 0
H          -5.0604745620270712      10.0049653931207843       6.2044697911975772      -0.0000965572957581       0.0000491259366353       0.0001613604316256 0 0
C          -3.6480028333697572      11.5395131099855561       6.4227452002207741       0.0000387689604539      -0.0001490410684880       0.0002089404677408 0 0
H          -4.2290753038380551      12.1028974822752282       7.1985345584681424       0.0013927078027866       0.0005272349698596      -0.0009767257757317 0 0
C          -2.4689227279216373      12.0678787639748144       5.9861814183897808       0.0005775279857249       0.0001022195090268      -0.0001726551274472 0 0
H          -2.1254826194570349      13.0595336810294693       6.3676648074689348      -0.0007727100215649      -0.0014402177942575      -0.0001464083210533 0 0
C          -1.7689065868354534      11.4291480691409593       4.9266175831304952      -0.0000314290556449      -0.0001088063111462      -0.0001199183532298 0 0
H          -0.9613627745721185      11.8993727721649005       4.5118241793744698      -0.0003995562284525      -0.0003611140693219       0.0005230546144299 0 0
C           0.0024026257100744       9.1800102794323379       3.7100779826447257       0.0000615302252591       0.0000371989853589      -0.0001474101172494 0 0
C           0.5346214292319884       9.6803897309499973       4.9303272732463554      -0.0001046885514899      -0.0002165949382689      -0.0001249545832566 0 0
C           1.6776903637204645      10.4996651076540477       4.8461315877499045      -0.0002020304465105       0.0001970615614060      -0.0002708059403928 0 0
H           2.1626169408854410      10.5104688969403526       3.9002504043315942      -0.0002440142008181      -0.0000001778600668       0.0015101633288965 0 0
C           2.1099514319135650      11.2185611621408210       5.9193555897257530       0.0000247716634033       0.0001619379606185       0.0000451450608585 0 0
H           2.9269428398487278      11.8542240136708532       5.8997012818199650      -0.0004649089683578      -0.0008240795688208      -0.0005713668454229 0 0
C           1.4157751093975901      11.0664858915156259       7.1398120866170451       0.0000328016560351       0.0001646898628282      -0.0000046123119588 0 0
H           1.7628881963825569      11.5836628427020987       7.9750776533064656       0.0003864293836214       0.0002642990297491       0.0008993670679439 0 0
C           0.3507419074915378      10.1687322488569780       7.3244646776850599      -0.0002174031288673      -0.0000788335164985       0.0002026626447884 0 0
H          -0.0583833709897624      10.0298678849758325       8.3844947061162678      -0.0000753193871162       0.0006670319460854       0.0004499617340083 0 0
C          -0.0598424018592471       9.4332552185742813       6.1988258376584628       0.0000846717635260       0.0003197509057080      -0.0000794895889249 0 0
H          -0.9812009808014446       8.7498075575098646       6.2670778851345483       0.0004872407402435       0.0002211585549206      -0.0007325103742324 0 0
C           0.6558772556483574       8.4763141489244003       2.6640319047799346      -0.0001958810862247      -0.0001088711089530       0.0000218327050720 0 0
C           1.9513107387788307       7.8142648310060485       2.8886605235575882      -0.0001857706274219      -0.0001228795106557       0.0000344964553980 0 0
C           2.8420325369144641       7.5038357198666095       1.8605693732077457      -0.0000059637866929      -0.0001771249455502       0.0000475857509847 0 0
H           2.7218046225469057       7.9563368747779419       0.9071099459686173      -0.0013183108835627       0.0006610896295767      -0.0016071308999942 0 0
C           3.9995334815568060       6.7890236369789667       2.0746223128612589       0.0000213151600487      -0.0001582783182811       0.0000132571147941 0 0
H           4.6632063588122055       6.5461453374929786       1.2419670112255088      -0.0004551986915017      -0.0005701566919262       0.0008772268091764 0 0
C           4.2714369677532833       6.2031557413478291       3.3119114220615353       0.0003570048125710      -0.0000679331874811      -0.0000926340330526 0 0
H           5.1783608790117714       5.6509386112077138       3.5397791728571502      -0.0014805270597785       0.0011619587328142      -0.0006599191054224 0 0
C           3.4122819541776352       6.4598116783944866       4.3182120725539272       0.0000790950375094      -0.0000727977632625      -0.0002113167438863 0 0
H           3.5654180433243652       6.0473244738767145       5.4362060323817110      -0.0004212667251887      -0.0002812932005001       0.0003569810447068 0 0
C           2.2982648412375566       7.3204212601902894       4.1618850360358506       0.0003389696578843      -0.0002316944814384      -0.0003919902882488 0 0
H           1.7162832332720799       7.5570563120347858       5.0708137939598004      -0.0014392354173773      -0.0010701888632845       0.0016747312159253 0 0
C          -0.9192011437717037       6.5427783032707056       0.6589758779625117      -0.0000545988337063      -0.0001845207961340      -0.0001277950625005 0 0
C           0.0673844941094615       5.5712151198199482       0.9474933370857207       0.0001451567195768      -0.0004558711380823      -0.0002394943847188 0 0
H           0.8447960155293417       5.8252354776700148       1.6134990757351242       0.0009145651539780      -0.0004159179756692       0.0009188200499216 0 0
C           0.0333481345749803       4.3306979188943524       0.3963144227127843       0.0002011088142538      -0.0002525206423795      -0.0002170169744402 0 0
H           0.6975133944048385       3.5234230905148416       0.6037297405239197       0.0001096757439547       0.0011173206190029       0.0012722731870992 0 0
C          -1.0427340357302277       4.0024885920199269      -0.4752448461137820       0.0000439087566647       0.0000699124064079      -0.0000786360942185 0 0
H          -1.0705566049713700       2.9825802770129815      -0.9792825326620951       0.0006363974998453       0.0000468505959531       0.0006677426924694 0 0
C          -1.9675384551132944       4.9579467980011529      -0.8103157697103295      -0.0001316219349416       0.0001280168249471      -0.0000427798162258 0 0
H          -2.7821690861237323       4.6421659606020915      -1.5354314784091150       0.0022287799567200      -0.0002775455556497       0.0013749643040673 0 0
C          -1.8797256876760842       6.2020209510965572      -0.2447721358944508       0.0000818313878260       0.0001160412119403      -0.0000929188736488 0 0
H          -2.6910222860530211       6.8638704777576711      -0.5190086902419820       0.0006793042678260      -0.0005815597099103       0.0007532078062925 0 0
C           0.3624040987098997       9.4000981985479992      -0.1424162237509149      -0.0000549606880369       0.0000553656480398       0.0000116351750551 0 0
C           1.4206129771660692      10.2883290574974602       0.2505493311322703       0.0000553482296579      -0.0001611965611609      -0.0001496899756367 0 0
H           1.5595174783316956      10.4153438449626563       1.3966623750145508       0.0004768532534920       0.0009177056696002       0.0007534442584423 0 0
C           2.2582476718715050      10.8336656426435045      -0.6969349797916217       0.0000243801424350      -0.0001300592088235      -0.0001011669171987 0 0
H           3.1031335758725986      11.5013110757760639      -0.4374550852951977      -0.0003659898995267       0.0001264388314483       0.0004431141439854 0 0
C           2.0450968332594663      10.6121428504568307      -2.0421135909573556       0.0002057947748230      -0.0000158382025589       0.0002969324799416 0 0
H           2.6283817168280872      11.0661702153328676      -2.7950655136856333       0.0007108678878432       0.0000672559107171       0.0011520289916350 0 0
C           0.9414068079994943       9.8367777835886354      -2.4228196208741148       0.0001415580189311      -0.0000516927382610      -0.0001942327209544 0 0
H           0.8465738384049000       9.7502791445934935      -3.5301161278023878       0.0006862252514412       0.0004787753352775       0.0000661386016063 0 0
C           0.1796044820462887       9.2377941952166491      -1.4723731949810610       0.0003220052745593       0.0000045064658975       0.0000480536635923 0 0
H          -0.6403223481912256       8.5857002674602310      -1.8167150559104768      -0.0005460225719486      -0.0009251059533951      -0.0004871547667803 0 0
Si         -1.6925548869496623       8.0779484061795621      -4.5653625111209255       0.0001185092252954      -0.0001787423633786       0.0002297936006122 0 0
C           0.0516407030888170       7.4522728831280487      -4.7523363110144015      -0.0001861033506179      -0.0000754175773607       0.0000272391569260 0 0
C           1.1070082929430922       7.0191834677784337      -3.7737699569054777       0.0001373028817034      -0.0002375083804338       0.0000313018462733 0 0
C           0.8204676194969079       6.2588794960614198      -2.6428470744115464       0.0001659127504773      -0.0001101184306957       0.0001950009975121 0 0
H          -0.1737392801017363       6.0966520892688321      -2.4323918861243485      -0.0018942438780787       0.0009427977899820       0.0008483243483494 0 0
C           1.8723917365018743       5.8970691470197725      -1.7671171618924209      -0.0000135834274415       0.0000684559269581      -0.0000060235979187 0 0
H           1.5225532131881436       5.2664075614466341      -0.9026394702637732      -0.0003321421104999      -0.0003459631404195       0.0016572793797987 0 0
C           3.1981730757180133       6.3054258161261343      -1.8789083610826336      -0.0000973947391409       0.0001302454850058      -0.0001228498175914 0 0
H           3.9628121390669997       6.0743302336782419      -1.1620010528593665       0.0001657420084725      -0.0002113570832311       0.0004288999756365 0 0
C           3.4586954397853220       7.0178380938424283      -3.0425372718125527       0.0001109511321471      -0.0001824289651615       0.0002310549170905 0 0
H           4.4381283472763462       7.3584239138206291      -3.3733474447948857       0.0019273800798872       0.0006154947565995      -0.0001770341516099 0 0
C           2.4433526385331286       7.4013653154401018      -3.9720226526645170       0.0000773255737017      -0.0001499207011144       0.0001914170735271 0 0
H           2.6822728716659019       7.9120887814681833      -4.8734134531374016       0.0001971820024369      -0.0001366574693764      -0.0001571903025648 0 0
C           0.2833341222388863       7.3436363725977944      -6.0590297864971472       0.0001173515616153       0.0001688872084872      -0.0000413574342003 0 0
C           1.5928507569401735       6.7822792582835616      -6.6829247347502632       0.0002617575419934       0.0000514135416117       0.0004142736285612 0 0
C           2.3269183343824271       7.5595938661821025      -7.5598718816710608      -0.0000885217146634       0.0002201661321820      -0.0000604555517592 0 0
H           1.9223887394107835       8.5506757379875573      -7.8791818312238311      -0.0000931075000113      -0.0003023415933867       0.0013409276404015 0 0
C           3.5411612745286756       7.0780184222101061      -8.0532126478849211      -0.0000685993068068       0.0000802662032575       0.0001280268767636 0 0
H           4.0530170157361161       7.7075170082235314      -8.7337979425125045       0.0000976529285559      -0.0000102543730969       0.0002622692422742 0 0
C           4.0111945490130978       5.8727917206240647      -7.5856832885622554       0.0000305764510485       0.0000132175222191      -0.0000194822454148 0 0
H           4.8849610549792635       5.4532886647127077      -8.1082227957587438       0.0008020563436958       0.0000740508484577      -0.0009039526239859 0 0
C           3.2783863982373189       5.0507136179876371      -6.7646429040584399      -0.0001878341485613       0.0001166240583621      -0.0000179443106886 0 0
H           3.5768942153911545       4.0686368452203947      -6.4432668289503452       0.0003443696905792      -0.0007527934505920       0.0001249550569452 0 0
C           2.0393455693776206       5.5463717809738187      -6.2632405222599266       0.0000436020273381       0.0002351513461657       0.0001857428180852 0 0
H           1.4915758827960528       4.9826543835525028      -5.5607939213356223       0.0001804887273624      -0.0004369217920324       0.0010229468628182 0 0
C          -0.7782032671652982       7.6327091175283970      -7.0695252137608975      -0.0000356086415966      -0.0001151876771271      -0.0002752999559698 0 0
C          -0.4975456734358034       7.7332700872392346      -8.5377851569199468       0.0001322028436157       0.0001579091500685       0.0000135611923365 0 0
C           0.1502003552349177       6.7214222236981396      -9.3083582874190611      -0.0000135507158325       0.0002092419413591       0.0001100877391878 0 0
H           0.4187603243898638       5.8189249972733048      -8.8820354540749555       0.0014641418975024       0.0003332496762603       0.0000210291277009 0 0
C           0.3613712427785822       6.8766526371724339     -10.6743387115040047      -0.0000850864331095      -0.0002668445525132      -0.0001799420056790 0 0
H           0.9156030619011729       6.1321326092772948     -11.2054401135075423      -0.0003265618672516       0.0010596331354645      -0.0001258152846245 0 0
C          -0.0212865285904624       8.0661701696486769     -11.3017088485942896       0.0001506074076455      -0.0000786184614677      -0.0000637786738319 0 0
H          -0.0178163391929449       8.2088634412268267     -12.3694700867378948       0.0005652967287950       0.0004622254652735       0.0008914182556753 0 0
C          -0.6928978851736071       9.0248998661120119     -10.5138088509894203      -0.0003676416542688      -0.0001511530598068       0.0000654623722371 0 0
H          -1.0617851666590730       9.9113585893013649     -11.0889589009684144       0.0000741191411884       0.0015007902241100      -0.0009740813102835 0 0
C          -0.8185783791790369       8.9151475271602667      -9.1674035095421686      -0.0003063838922791       0.0001401388272973       0.0002230106241340 0 0
H          -1.3643972430523588       9.6979517867054277      -8.7207869886424803       0.0004690388540132      -0.0003253572059309      -0.0006884774603890 0 0
C          -2.0107550982990858       7.9804888627483876      -6.4829515575929380      -0.0000978571645050      -0.0002184516302956      -0.0004314777184080 0 0
C          -3.2445261699138279       8.2098525888542682      -7.1936620561688036      -0.0000584942559591      -0.0000134045970693       0.0000293153422061 0 0
C          -4.2650772519175941       9.1211525078712548      -6.8075109472851576      -0.0000078886782444      -0.0002722497799806      -0.0000355557482452 0 0
H          -4.0974667901565489       9.8588812215745563      -5.8448652467878937      -0.0004133877354828       0.0002457068831418      -0.0008614628435819 0 0
C          -5.4727908460634902       9.2256848891882210      -7.5638165434311579      -0.0001902713055551       0.0000473037601688       0.0000247237116340 0 0
H          -6.3361115993518125       9.8807528430732532      -7.3037451334093202       0.0005665709342668      -0.0007387596564752      -0.0005005853608106 0 0
C          -5.5861097629490208       8.4491352702500269      -8.7533817406047394      -0.0000899161594948       0.0000765846866680       0.0000888607625176 0 0
H          -6.4822919609462977       8.4466961726958445      -9.3053943284678375       0.0005984271173984       0.0006889150218793      -0.0004638222355180 0 0
C          -4.4991939787641062       7.6560362086673956      -9.1721820112806025       0.0000554299608666      -0.0001434646757472       0.0001409176000178 0 0
H          -4.5754571051331103       7.2460332046417548     -10.2111407429984915      -0.0007390899575525       0.0005653363260365       0.0003667268526730 0 0
C          -3.3952120309599176       7.5913924268508115      -8.4331636085311317      -0.0003942579383516      -0.0000292986838043       0.0000595739800526 0 0
H          -2.6526941577747860       6.9688819191704763      -8.8546043829159249      -0.0013827456025519       0.0005573636532256      -0.0003075224634149 0 0
C          -2.1709254726785883       9.8114935896639022      -3.8805799220629940      -0.0000790212986346      -0.0000459212345421       0.0001058195471607 0 0
C          -2.0304163571848797      10.9341301781039739      -4.7393827827888337      -0.0000527719999618       0.0002735978076238      -0.0000464101109234 0 0
H          -1.5546150308090667      10.7261744499645690      -5.6496696242179842      -0.0004302102503330      -0.0012261426799902      -0.0007830229100961 0 0
C          -2.5519196103508368      12.1860552653447662      -4.4309388395791780      -0.0001561184746170      -0.0000413180462167       0.0000450224262887 0 0
H          -2.2477365751138962      13.0373214386468330      -4.9545998325436384       0.0002448493213440       0.0011790635134140       0.0007582998813149 0 0
C          -3.1805640010868741      12.3367198074644318      -3.2193433659050661      -0.0001080623768159       0.0002708129456368      -0.0003285256656106 0 0
H          -3.4543503567394880      13.4457363809479666      -2.9907701785351755       0.0009116716394830      -0.0022687777973607      -0.0002808506336433 0 0
C          -3.2675104820967209      11.2938980212772613      -2.3208225330481720      -0.0000797143268027       0.0002062664467507       0.0004685713665948 0 0
H          -3.6323452617261358      11.4672126947844220      -1.2283481987745075       0.0012134828573313       0.0001819893531060      -0.0001885977342885 0 0
C          -2.7823796072322868      10.0290691347792862      -2.6083184840699527      -0.0000406849213179      -0.0002568288567437      -0.0001877730810774 0 0
H          -2.7412898505839265       9.1894629968026091      -1.8830121786028726      -0.0002508540480992       0.0006407264224106      -0.0010612006678558 0 0
C          -2.7780340837830031       6.7080704703651035      -3.9390730181034117       0.0001137362977748       0.0001877404073193      -0.0000157284455038 0 0
C          -2.3304863143106322       5.4311204616689279      -4.1565927484309295      -0.0000259046042344       0.0001356886683589      -0.0002030282133323 0 0
H          -1.2661584720636223       5.2751725983976332      -4.3245360591732123      -0.0004517001590200      -0.0000949615632197       0.0001042111221222 0 0
C          -3.2389852383260123       4.4088030717765392      -3.8249670988681603       0.0000245127595393      -0.0000546819740980      -0.0001703946596552 0 0
H          -2.9214682390779636       3.3359639974253028      -3.7317268437445681      -0.0000302857085377       0.0012120003595516       0.0008205005717809 0 0
C          -4.4884526928320847       4.7569806600841789      -3.3450313067882926      -0.0000148230709720      -0.0000980270953061      -0.0003376127078715 0 0
H          -5.0326428201758437       3.9742727963862454      -2.9407097087738925       0.0001227790105746       0.0002374334965347       0.0006575846785776 0 0
C          -4.9956646681770502       6.0468457955826516      -3.2742093056168602       0.0000782221953111      -0.0002255798229390       0.0000508820064693 0 0
H          -5.8646604192091463       6.2571910996142810      -2.7028952266530433      -0.0004319313944955      -0.0002741359111165       0.0011671019146438 0 0
C          -4.0920436834857439       7.0064234532377920      -3.6627831851015493       0.0000184189241938       0.0000610291968512      -0.0000708870542650 0 0
H          -4.3109413237293470       8.0894301203228434      -3.5184365931578605      -0.0000626227927515      -0.0010542552843416       0.0013258844829778 0 0
Si        -10.1188489137254578      -2.9888476930767074       0.0776355437315819      -0.0000515888309360       0.0001316848000601       0.0001024732302484 0 0
C         -11.1533448498116794      -2.5943978055869859       1.6187715169366796      -0.0001012667900257      -0.0001970026882465      -0.0002183962119533 0 0
C         -12.6476405162331105      -2.9371695594458913       1.6412866514941926      -0.0001077507138859       0.0001765661082780       0.0003780288462581 0 0
C         -13.6796609926222956      -2.0950789126722955       1.4570852328525383       0.0001912490984305       0.0000175375942674       0.0000563561732072 0 0
H         -13.6184209421238869      -1.0588072251591309       1.6141429887072529       0.0000971222857066      -0.0003545247615023       0.0002424129551237 0 0
C         -15.0164327448155408      -2.5790504072924767       1.3098410074499720       0.0000669639895944       0.0001886622670621       0.0001605947022751 0 0
H         -15.8123133784951442      -1.8042825898050145       1.3806934441984042       0.0001085456396364      -0.0007380382099078       0.0000656272989027 0 0
C         -15.2842933298918755      -3.9358207727802359       1.2612348789544476       0.0000135620749299      -0.0002433384805216      -0.0000809826026116 0 0
H         -16.4712404444664600      -4.2998081610293513       1.2225934309547974      -0.0009240139658020      -0.0000953473961459      -0.0001832071059895 0 0
C         -14.2137403566495699      -4.8067828297998183       1.3950478491169644       0.0000817569224419       0.0004181075435664       0.0001439579572563 0 0
H         -14.3897047021527165      -5.8836505834314128       1.5292997352502897      -0.0007833125026272      -0.0006483663276514       0.0001094684137191 0 0
C         -12.9334270371182090      -4.3239039155886712       1.5452422357764626      -0.0002477684962899      -0.0000432132592778       0.0000986829682206 0 0
H         -12.1695493296794126      -5.0482911487582189       1.7258781203358926       0.0005455848670968      -0.0002351799066486       0.0002182217392585 0 0
C         -10.3806945733570366      -2.1968269548742470       2.6344081623793647      -0.0002180848090374       0.0002027171128899       0.0002020191994112 0 0
C         -10.8692426015775219      -1.5450763972230053       3.7969245352795085      -0.0001343575398527       0.0001820833944456      -0.0001685589420932 0 0
C         -10.5902514319559202      -2.0363791010949894       5.1259251646652304      -0.0003990235997595       0.0000174746692272       0.0002707446699149 0 0
H          -9.9281699303045698      -2.8708861928187881       5.1272290043533619      -0.0013817569596313       0.0001323237900474      -0.0004603340209624 0 0
C         -11.1919010636431562      -1.3583571199002009       6.1699621168263921       0.0000920808179459      -0.0003313468924506       0.0000717102231473 0 0
H         -11.0541702374104585      -1.7649172395693755       7.2756846353196734       0.0003150976360473      -0.0002614237834224       0.0005069682507089 0 0
C         -11.9138214029914202      -0.1707666521718716       6.0272154081904521      -0.0000593502892363       0.0003546100071393       0.0002406491948016 0 0
H         -12.2719531816440011       0.2862068424708291       6.8918638730000534       0.0010531976645319       0.0002988788085968      -0.0004721875372489 0 0
C         -12.1883200581783786       0.2571991111367323       4.7096060215138857      -0.0002740678186310       0.0005183452309778       0.0000199164897207 0 0
H         -12.7102767160240706       1.2185854481221199       4.5894902987500883       0.0002495851472896      -0.0006261333427662      -0.0000682233135836 0 0
C         -11.6735408683536797      -0.4233789694885883       3.6626064095631587      -0.0001563167995417      -0.0001412654560288       0.0000152867620341 0 0
H         -11.8474237115220511      -0.1557624897807017       2.5866051648929078      -0.0000449541222940      -0.0004404814144035      -0.0012027067618269 0 0
C          -8.9244321923403387      -2.1717867338144603       2.3578113120078323      -0.0000930129155719       0.0001197210771165      -0.0000483239261844 0 0
C          -7.9172421099120038      -2.0269909122905592       3.3564064967732139      -0.0003536253591695      -0.0001085094587129       0.0002227810169598 0 0
C          -7.0990856203720147      -3.0956260244621201       3.7319568175854703       0.0002425427693464      -0.0002903993506281      -0.0003272780625534 0 0
H          -7.3612492855197607      -3.9649904248777572       3.3801364662505669      -0.0007696114360619       0.0017480328155548      -0.0005293086515578 0 0
C          -5.9880400959057694      -2.9070289740924133       4.5723962048471583       0.0005273770560153      -0.0000007525066616      -0.0002481339862291 0 0
H          -5.3661344312927062      -3.7696655405061348       4.9409949919600171       0.0005845573004543       0.0002526267906283       0.0002412033229887 0 0
C          -5.7061514930046480      -1.6494574969944511       5.0826307613117674       0.0000710745004742       0.0001453420527674      -0.0001942040504011 0 0
H          -4.8898956197852677      -1.5445370973157642       5.7248624938302832       0.0006643164264684      -0.0000296921043007       0.0002778728633387 0 0
C          -6.5102453444549147      -0.5915951764113493       4.7477060642992592       0.0000600720496411       0.0001275711495466      -0.0001020569020244 0 0
H          -6.2789916136597936       0.4397540981065786       5.2324342285909680      -0.0004033366023756       0.0005157849387820       0.0004701738523205 0 0
C          -7.6136242966997347      -0.7354775496595579       3.9060308622479503      -0.0000149948541187      -0.0000900547916148      -0.0001233619679346 0 0
H          -8.1819182351605537       0.1295291706817076       3.4351183942994736       0.0000488777228308      -0.0003477140173026       0.0004606841767309 0 0
C          -8.6056634249684603      -2.4137463088308162       1.0729129314472952       0.0002494514034104      -0.0000143357765520       0.0000778948576274 0 0
C          -7.1906976838291561      -2.4069805075044282       0.5850855130419805      -0.0000580594076622       0.0000923075058703      -0.0001819456565581 0 0
C          -6.7850841558388275      -1.2832594360372542      -0.1676010912530033       0.0000859850382348      -0.0003363190260745      -0.0003520460602822 0 0
H          -7.3160711087021983      -0.3458095194540046      -0.0904626031223659      -0.0001563979441370      -0.0006668723110534      -0.0000646705792336 0 0
C          -5.6014457620884519      -1.2628698967661462      -0.7785830458608114      -0.0002214548965612       0.0002719169191312       0.0002897455636923 0 0
H          -5.2525282880115363      -0.3480162630555826      -1.3537768374538763       0.0003516071646303       0.0011424111966990      -0.0010082718376948 0 0
C          -4.8090945106636127      -2.3971283562394929      -0.7941726231385322       0.0001681798844379      -0.0000876804270862       0.0001195590721552 0 0
H          -3.7881196071370864      -2.4085716508746255      -1.1789569122412948      -0.0003930823478788       0.0005422942677432       0.0003729203819725 0 0
C          -5.2255713034405726      -3.5724617049953684      -0.1576412594654001      -0.0001106295822182       0.0003406676341553      -0.0001461325904599 0 0
H          -4.5888704133733738      -4.5737933787520797      -0.1952021092393286      -0.0003186055450427      -0.0007970159090268       0.0000597497487862 0 0
C          -6.4584741433305561      -3.5517028801846431       0.4368614021932560       0.0001232136032428      -0.0004199943582235       0.0000173797801402 0 0
H          -6.8280313746632739      -4.3575409075940144       0.9615055595446457       0.0005720747537387      -0.0002595636565741      -0.0007629248626432 0 0
C          -9.4824364999084043      -4.7338348338906089      -0.1985352127770167       0.0002222354863632       0.0001162882316678       0.0000143614677024 0 0
C          -9.0184645385160316      -5.4599169609811362       0.8706966769190053      -0.0001329354056124      -0.0001113406384129      -0.0000600125418501 0 0
H          -9.1995475993725329      -5.0716510484363955       1.8287905008642233      -0.0004371150311862      -0.0002794130133251       0.0017156898162040 0 0
C          -8.3077834616343029      -6.6153616003227986       0.6679328536465858       0.0000603608260190      -0.0000869451337318      -0.0002029579489715 0 0
H          -7.8109625367727959      -7.1462689065539076       1.5391338589130501      -0.0003953941618133       0.0005538343299841      -0.0009587178576752 0 0
C          -8.0540147762962651      -7.0292097487632343      -0.6461468285031348       0.0001147145810937       0.0001019494243386       0.0001079100402395 0 0
H          -7.4222538842179491      -7.8395324302900828      -0.7741231095572647      -0.0009207865918043       0.0003617092147523       0.0003709075315169 0 0
C          -8.4491741552118302      -6.2097017232919480      -1.7277614062554187       0.0002030521398794       0.0001352676716405       0.0001220757285232 0 0
H          -8.0933410430075376      -6.4398146002560459      -2.6814312949598818       0.0018987403710793      -0.0006348582987666      -0.0007082998091765 0 0
C          -9.1614569310644285      -5.1122277931096525      -1.4651045811254129       0.0001673576303499      -0.0000072736131344       0.0001285946548471 0 0
H          -9.4233602507766339      -4.4230625908223233      -2.3094448975842417       0.0001165485779179      -0.0008571003241761       0.0007413203333659 0 0
C         -10.8655192267575256      -2.0185872241414771      -1.2862578428561700      -0.0003047121840044      -0.0001439713191782      -0.0000443711351707 0 0
C         -11.5657592686209867      -2.5564957890891176      -2.3073267183037824      -0.0001291593773347       0.0001010950389834       0.0002394000858928 0 0
H         -11.9643927545605528      -3.4503840239910981      -2.1358652307209716      -0.0002074883625961      -0.0009727674060727      -0.0002434844469305 0 0
C         -11.8043577629426402      -1.9240199430000635      -3.5033843808069238      -0.0002538911463612      -0.0000857073260397      -0.0002793672161640 0 0
H         -12.2677738036273514      -2.3057474261232365      -4.2909147070176612       0.0012269540844629       0.0015460053856346      -0.0003425132228604 0 0
C         -11.3223369717912252      -0.6293837842166994      -3.6090306357719872      -0.0001165489345017      -0.0000149709692601      -0.0002117249857533 0 0
H         -11.3742311333858002      -0.1367003859828747      -4.5238911597673805       0.0001500823472674      -0.0001938258876646       0.0013567642259793 0 0
C         -10.7313193902432520       0.0138596358336978      -2.5567899101503437       0.0001175582870497      -0.0002022627953370      -0.0002382789826265 0 0
H         -10.3847413106748121       0.9865861802431001      -2.6386817169550256       0.0002389256840422      -0.0009027433515351      -0.0000442794284466 0 0
C         -10.4347097613627504      -0.6937886981692045      -1.3873260635933076       0.0000463483433080      -0.0002697763301873       0.0001462291716594 0 0
H          -9.9594170914972224      -0.2406873223632950      -0.5930068998640425      -0.0004637378947661      -0.0004773262450838      -0.0017388481454105 0 0
Si          0.4755059445911496     -10.2332135738080670      -3.8930081389582774      -0.0000015248612758       0.0001198489069865      -0.0001043064428790 0 0
C          -1.3184333272109996     -10.0187643419647436      -3.1714213746044071       0.0002227450260270       0.0001746402365752       0.0001264955458449 0 0
C          -2.5273862459467473      -9.9804678006246643      -4.0251892621178529       0.0000006942714544      -0.0001028682143245       0.0003382616590179 0 0
C          -3.3365527528216594     -11.0751386621077756      -4.2696632738923617       0.0002693126676211       0.0000232762619554      -0.0000534330891968 0 0
H          -3.1567412637300567     -12.0083996585903492      -3.7979724909712282      -0.0004287468207540       0.0014772053532058      -0.0009452017816308 0 0
C          -4.3717020159634243     -11.0178090374880515      -5.2074515096234304      -0.0002730576407106       0.0000532028411195      -0.0001843647830527 0 0
H          -5.1342470589676923     -11.8536435096364325      -5.3958453415387346      -0.0007522052445744       0.0010474807500306       0.0006515626459890 0 0
C          -4.5833311975645117      -9.8986508135595894      -5.9961781525194944       0.0004587855390722       0.0000440784407770      -0.0001254833948237 0 0
H          -5.3527274475052211      -9.8334980522064921      -6.7936411959798750      -0.0016586166319445      -0.0002381271291963      -0.0001963418587921 0 0
C          -3.6972821776331615      -8.7990627607790923      -5.7790086510666807      -0.0000657022956994       0.0001287062687150       0.0002545880154520 0 0
H          -3.9437463824219083      -7.9430520962073921      -6.4323838683652648       0.0000213471959754       0.0001791668681656      -0.0000893499758325 0 0
C          -2.7777408263517680      -8.8172684683558327      -4.8075528260813085       0.0000256064738166       0.0000327940508920      -0.0001699309703856 0 0
H          -2.1786224570760093      -7.8386415768077908      -4.6172458962692673      -0.0013406585650839      -0.0003951798838122      -0.0008130023833674 0 0
C          -1.2697049815917871      -9.6122049490086319      -1.8964277464299346      -0.0001116983920451      -0.0001130108667664       0.0000548092704171 0 0
C          -2.4779816041289586      -9.3073166102406297      -1.1402186076219252       0.0001371280779585      -0.0001116283304630       0.0002392401395310 0 0
C          -3.5974292565700838     -10.1208553300051918      -1.1197248243816647      -0.0000642541987882      -0.0001741025323110       0.0000799360292418 0 0
H          -3.5047540196753975     -11.1018828982594702      -1.6344988656290369      -0.0004761618431572       0.0002079335403888       0.0003044615071213 0 0
C          -4.7351844270932837      -9.7803187980902671      -0.4478398537439814      -0.0000642290529567      -0.0001785294592303       0.0001445030161220 0 0
H          -5.5988638284253920     -10.4162753638240435      -0.3730543144568756       0.0005972148874177      -0.0001709266060108      -0.0002214767775739 0 0
C          -4.8450911025498566      -8.5282898667448688       0.1629952078436983      -0.0001865100759134       0.0000604529920224       0.0000298705100796 0 0
H          -5.7319142648044910      -8.1630958350779110       0.6970598231169669      -0.0004104002180097      -0.0006007931001544       0.0002985984977504 0 0
C          -3.7877196224816174      -7.6317518908152664       0.0639547896860796      -0.0000881972374274      -0.0000020377763212       0.0001538184386047 0 0
H          -3.7911759782170398      -6.6583637398377737       0.5189154154047209      -0.0003184203879561      -0.0006490720481514      -0.0002302078491010 0 0
C          -2.6409662152978397      -8.0023561935451024      -0.6321872674159147       0.0000885827793392      -0.0002594293683556       0.0000921297454680 0 0
H          -1.7674426596984973      -7.4113111736410726      -0.6588744799877899       0.0000083345579732       0.0007835029661931       0.0003915659868504 0 0
C           0.0795795233249902      -9.6059204777172749      -1.2646002688249067       0.0003534809938739      -0.0000135196590324      -0.0001418942990537 0 0
C           0.4851246534718106      -9.2396340546432931       0.0902808916751542      -0.0000667718209222      -0.0002567822881175      -0.0000493267890659 0 0
C           0.4551916925226527      -7.8760306271880482       0.4860570499661710      -0.0001585730834480      -0.0000523657171840       0.0000940126573320 0 0
H          -0.1092335996470614      -7.1835356336668470      -0.2142706928003734      -0.0004764937740441      -0.0001980222549691      -0.0004603273472052 0 0
C           1.0558194074829423      -7.4816261089086638       1.7016696032674847      -0.0002742035193084      -0.0001793889779790       0.0000199779673836 0 0
H           0.9819717099811334      -6.4462833059600397       1.9589966632192710      -0.0004957387070805       0.0008019714472303       0.0001945915500352 0 0
C           1.6791344119835534      -8.4255469744900164       2.4853594458873154      -0.0003815793484148       0.0005774159187416      -0.0000078714233336 0 0
H           2.2191196044797810      -8.1028108454887064       3.4187584618789271       0.0010724114227294       0.0001337940908888       0.0006581475410167 0 0
C           1.7652482873374689      -9.7207698823354587       2.0390681580711538       0.0002037994045045      -0.0003919969657858      -0.0001051886590384 0 0
H           2.2452185299710834     -10.5655974760969293       2.6104559218307939       0.0003781889374839      -0.0002422868550680       0.0003715976576856 0 0
C           1.1154509695905457     -10.1449568860054811       0.9145874177483397       0.0001218367490410       0.0001050137290269      -0.0004565848728178 0 0
H           1.1588793319646120     -11.2266713103597748       0.5923881460189131      -0.0002334276690200       0.0002465230307273      -0.0007144386018565 0 0
C           1.0388240147359638      -9.9035473663938820      -2.1386626198338923      -0.0001252433591199      -0.0002386623619554       0.0001517211845992 0 0
C           2.4995929832384425      -9.9633284220517631      -1.8148104011052011      -0.0001972337642771      -0.0002421946637424       0.0000333987465807 0 0
C           3.0831997214911446      -8.7940795161006875      -1.2762105403215693       0.0002077261562600      -0.0000856719133713      -0.0000468447917606 0 0
H           2.3295718883835548      -8.0720075835366742      -0.8311530266757694       0.0013113691461310      -0.0007401694720339      -0.0000341637819510 0 0
C           4.4349626575827887      -8.7252551335761712      -1.2483985057940272      -0.0000928102744800      -0.0000671317089570       0.0000502340722567 0 0
H           4.9592830382876834      -7.9154482292415587      -0.6621790457610135       0.0006862263397576       0.0006551976676670      -0.0012357285212077 0 0
C           5.2355442614167789      -9.6910895530979886      -1.8626332882254750       0.0001812800506490      -0.0002458035330933      -0.0004469569552439 0 0
H           6.3337301466607316      -9.6794471801091770      -1.6640343343965986       0.0009611695505141      -0.0001164054217415      -0.0003695235744533 0 0
C           4.6281438362455249     -10.8300515294992454      -2.3594905513361613      -0.0003186706378247      -0.0000616172876739       0.0000633106590282 0 0
H           5.2735218128400794     -11.6885135152529038      -2.6628401959040322       0.0005552905475308       0.0004759026122473      -0.0008423329921600 0 0
C           3.2648565397013356     -10.9392105750424289      -2.3695358442372565       0.0003523902718780      -0.0002682027194180       0.0000636245090442 0 0
H           2.7946347453010856     -11.9096159572932887      -2.7257210504037408      -0.0004492810863232       0.0016074671298443      -0.0001477409649406 0 0
C           0.8836005198160990     -11.9294981547967485      -4.6728871879695770      -0.0001221080486938      -0.0001524274139227      -0.0000766556349979 0 0
C           1.0674048485158822     -12.2335598133872541      -6.0099717675440125      -0.0000853799725233      -0.0000522799349857       0.0001913913646894 0 0
H           1.1642775594935153     -11.3837524118211775      -6.7582813345099675       0.0004488322488958      -0.0003327056317083       0.0011412039130630 0 0
C           1.2310434530170584     -13.4406954145988689      -6.5550949414751170      -0.0001817689017825       0.0000152728069253      -0.0001066569139032 0 0
H           1.4361198305995053     -13.6823793639441842      -7.5984233222350515       0.0006938270953804      -0.0017034380024632      -0.0004432610170868 0 0
C           1.2730966494868461     -14.5322950549075021      -5.6903786690441072       0.0000946935809562      -0.0003041203523862      -0.0001191493010727 0 0
H           1.4870375142007992     -15.5544726578147969      -6.1295285932505656      -0.0002364726071705       0.0000142165694298       0.0009861188020572 0 0
C           1.1167574817284189     -14.3349948653712840      -4.2885279325817205      -0.0000353625525009      -0.0001165462052553      -0.0000653254177374 0 0
H           1.1360527859793097     -15.1227857902054286      -3.6315629364805986      -0.0001739199757857       0.0000442035070476      -0.0001289679984097 0 0
C           0.8325527129203114     -13.0695460700349351      -3.8321745152961091      -0.0000275627804615      -0.0003747186033057      -0.0001218352375038 0 0
H           0.5148806240210686     -12.8656947788472635      -2.7512651778734072      -0.0006322216454365      -0.0007481773075253      -0.0002680167997472 0 0
C           0.7787460862240548      -8.6725236753690478      -5.0083886080962419      -0.0001755105867484       0.0003674672238441      -0.0000739809511728 0 0
C           0.6669780348592563      -7.4117175754628200      -4.4396657212995931      -0.0000408926894113      -0.0001840559327680      -0.0001872897472279 0 0
H           0.5464754912292407      -7.3418797695861997      -3.2885449794585098       0.0004731686599018       0.0012902240198976       0.0010157832964518 0 0
C           0.7662714019052284      -6.2636789914932942      -5.2758817017341126       0.0000346615182573       0.0000498985335773       0.0002344590067214 0 0
H           0.5912760568548674      -5.2269107203053453      -4.7575075510412068       0.0009484187764644      -0.0004600691761950      -0.0000318369748656 0 0
C           0.8703228255691834      -6.4140967124237811      -6.6301712650835150       0.0000188428065954      -0.0001860283956794       0.0000177961139295 0 0
H           0.7840191432553326      -5.5222750639246652      -7.2719994523041187       0.0001204727978762       0.0005184695888722       0.0006722322927653 0 0
C           1.0967528176293160      -7.6794678119960684      -7.1936664320332904       0.0000646116702428       0.0000361107512748       0.0000281198649808 0 0
H           1.1864033965396641      -7.8941035055057078      -8.2766480386781325       0.0001141729186236      -0.0001147912168203       0.0010638417736384 0 0
C           1.0930238682558242      -8.7735814244394437      -6.3266685047319635       0.0004716219997075       0.0001149416888873      -0.0000052101517401 0 0
H           1.2116727150921094      -9.6903456700589281      -6.9064430563436146       0.0004268748224826       0.0009199420660006       0.0001629179637797 0 0
Si          9.9202383676587385       1.6402054371983130       1.9707060936287424      -0.0001007858383305       0.0000051022929124      -0.0000659122992544 0 0
C           8.1961162986011988       2.4536043889859194       2.2388406526668239       0.0000795806046900       0.0001558466850348      -0.0002092904204751 0 0
C           7.2478309109542094       2.6785007333869393       1.1374087324784654       0.0000637936033346      -0.0000552047071614       0.0002033932155334 0 0
C           7.4078174030918635       2.0910895600486459      -0.0934045054545223      -0.0001688820193700      -0.0001070772538185       0.0000976746756110 0 0
H           8.2259754778261502       1.5267166671269075      -0.2389673475304736      -0.0012000496663979       0.0003580530295078      -0.0012120121092972 0 0
C           6.4918342438002963       2.2868503951252346      -1.0970097562632901       0.0000749678267493      -0.0001031951800939       0.0000684348523118 0 0
H           6.5974526839133212       1.7560714957488170      -2.0923646656136903      -0.0009529488063208       0.0010545961143681       0.0014147216672566 0 0
C           5.3396508021145577       3.0881759497369137      -0.9170448563677021       0.0001982435805835      -0.0000319925966401      -0.0001288106788766 0 0
H           4.6251877604249536       3.2094652065959948      -1.8489335105211113      -0.0001742119494639      -0.0008285427489421      -0.0003479064624765 0 0
C           5.1001497626449277       3.6263947401554866       0.3531926979249959       0.0002233220816431      -0.0003425626899699      -0.0000424269668146 0 0
H           4.2502435131848086       4.1503292085924777       0.5724321537898408      -0.0012276701600410       0.0001412753885975       0.0000543591506904 0 0
C           6.1049155726804818       3.5015792722521186       1.3095944174720648      -0.0000355567360524      -0.0002590924274516      -0.0000763044902698 0 0
H           5.9080232509794666       4.0371983841297343       2.3044200529049026      -0.0014654982683230       0.0005518648181462       0.0010096038696814 0 0
C           7.9975543011460033       2.6771650077574689       3.5596956195884522      -0.0000251996580449       0.0000991589294962      -0.0001941504666557 0 0
C           6.6824029616113014       2.8814313398004745       4.2104283702240339       0.0001737316626276       0.0000837625129598       0.0000767650267184 0 0
C           5.5976907601378558       2.1009117674824926       3.7861379011818195       0.0000848623319581       0.0000369995669497      -0.0002194095863559 0 0
H           5.7720375305809268       1.2816399267230469       2.9768212680781039       0.0011911912567951       0.0003566731196210      -0.0014096332674380 0 0
C           4.2807687508687646       2.3397493852197599       4.1824519092186128       0.0001226926174290       0.0001213056972987       0.0003049752043396 0 0
H           3.3528756181047443       1.7588980042809350       3.8270207899355491       0.0000124040498461       0.0005491222264514      -0.0001002667399778 0 0
C           4.0689104013297035       3.2785317300709718       5.1373657332214302       0.0001102136026853      -0.0000364772266731      -0.0001136329766832 0 0
H           2.9593578768238289       3.4979377941003591       5.6174569337354523      -0.0001092645377356      -0.0001233693590827       0.0009002472112448 0 0
C           5.1133188722874641       4.0654749064584950       5.6558041592230701       0.0000143379836087      -0.0001236964055805       0.0005433423107389 0 0
H           4.9633462557441934       4.7488778320908613       6.4446731899572063       0.0011848743033084      -0.0008307289918854      -0.0005586168254902 0 0
C           6.4253892956339635       3.9000938685565050       5.0965695125830859       0.0001785911262291      -0.0000239935183524      -0.0003232570969299 0 0
H           7.2115990800141727       4.4707796201434942       5.5106116975499910       0.0009973927308734       0.0014225833378623       0.0011506120803380 0 0
C           9.2056246083123572       2.4730855375498777       4.4087552243287824       0.0001329446128423       0.0003559776288970       0.0002485021333546 0 0
C           9.3430378388505186       2.9943051979317423       5.7614752605397648       0.0002352934516006      -0.0000128670781274       0.0000634491355722 0 0
C           9.5010645641122498       4.3613227489062583       6.0071124426174158       0.0000682242424842       0.0001582950584315      -0.0000731870717762 0 0
H           9.5416974440915290       5.0764875925450594       5.1178061887289781      -0.0008987003382712      -0.0003248689874107       0.0001441689038486 0 0
C           9.7804900934056995       4.7805272670007621       7.3199865486180773      -0.0001473267432545       0.0003006895603915      -0.0001510645451927 0 0
H           9.8950333882516759       5.8246693700102066       7.4345178679776271      -0.0001895048015208       0.0007260218854183       0.0003281396143483 0 0
C          10.0184843478495917       3.9227287145584779       8.3810502703284904      -0.0000231438212870       0.0000050630606265       0.0001661934353004 0 0
H          10.2679120391653154       4.3112554816165405       9.3269530866667569      -0.0006481219711564      -0.0001823309112429      -0.0012574757998647 0 0
C          10.0226896084739110       2.5424990579387328       8.0900882751079894       0.0001122840916681      -0.0001004683536314      -0.0002173683905258 0 0
H          10.2022068325643520       1.7147827118041847       8.7816895189273705      -0.0002995232520212      -0.0008735332973694       0.0008741727916773 0 0
C           9.5479102957352495       2.1237919894918997       6.8283729323038882       0.0000683581870967       0.0002036927737802      -0.0003777598136010 0 0
H           9.4127489200769681       1.0767777293536329       6.5673972864380081      -0.0005032647970782       0.0004982589797483      -0.0006997864052222 0 0
C          10.3483668932464852       1.9008942104330462       3.7965480262956226      -0.0000574917646148       0.0002145417076301       0.0001024758192424 0 0
C          11.5918632663490602       1.6695523953698705       4.4935229065817621       0.0002059310979795       0.0002018742193599      -0.0000846585945813 0 0
C          12.4639828745417880       2.7003778287505118       4.7890815439723973      -0.0000293918684984       0.0002248817700664       0.0000023448927770 0 0
H          12.1907602057408653       3.7344499046928594       4.6120123631937719      -0.0006488839765718      -0.0008532619766438       0.0002570614643115 0 0
C          13.7134541881310650       2.4624925311314345       5.4003999577513682       0.0000166758139348       0.0000178446117694       0.0001131664935708 0 0
H          14.3120852776037122       3.2632665788988438       5.6465160799507412      -0.0006224013914961       0.0001444777080138      -0.0008225461193892 0 0
C          14.0843124884244624       1.1881247043958663       5.7054282238439109      -0.0002134144127458      -0.0001523390450238       0.0000141207960792 0 0
H          15.0274640954427792       1.0488983000607817       6.1468820943623985       0.0000824009333333      -0.0003413511489760      -0.0016518537454742 0 0
C          13.1496056523380904       0.1666948965358998       5.5601177618740572      -0.0001910190286874      -0.0001412275952384      -0.0000250639059400 0 0
H          13.3650369137639142      -0.8892322236810123       5.9769126889586879      -0.0007134206893453      -0.0006322968761200      -0.0005602144768819 0 0
C          11.9541774125046398       0.4002083200379277       4.8677890360621143      -0.0003205410406351       0.0002659243603152       0.0002927778388246 0 0
H          11.1870633650539713      -0.3954525754002376       4.8695431297551854      -0.0007366532436119       0.0005704922893979      -0.0012130222147743 0 0
C          10.0714774210924620      -0.1704889996495732       1.4041059373209090      -0.0000462405725733      -0.0000485757025296       0.0001859715420642 0 0
C          11.2872311923118005      -0.7507707181907620       1.5422857050212373      -0.0001699138120332       0.0001600935492678       0.0001461673270252 0 0
H          12.1224594202628566      -0.1794327629658730       2.1133528643327115      -0.0003210881053925      -0.0016760240452284      -0.0004010935910853 0 0
C          11.5714716569038032      -2.1190893817628447       1.2759134376612982      -0.0002248008633996      -0.0001446336761977       0.0004917040316911 0 0
H          12.5870970874427606      -2.6018592697631133       1.5523205079206781      -0.0012678528189744      -0.0002675475539058       0.0012776814308762 0 0
C          10.5312337512424836      -2.9539310617631056       0.8711843869608096       0.0000629628866757       0.0001698087013870      -0.0000141491096921 0 0
H          10.6393039223336832      -4.0609137348119955       0.7867376038490780       0.0007830492800159      -0.0009438450158390       0.0003592201358458 0 0
C           9.3119210799665222      -2.3374697450210831       0.6383226846053573       0.0000401057172151       0.0000581409283993       0.0000444888295479 0 0
H           8.4804238314853482      -2.8685242887007387       0.2682124025076175       0.0008087852081694      -0.0002682102845322       0.0007471515220289 0 0
C           9.1156078145902466      -1.0207198184958750       0.8653928856519187       0.0002721999228719       0.0001955162992851       0.0001245202826979 0 0
H           7.9435371181205694      -0.6570173736697191       0.7449866260254566      -0.0021404554531696       0.0010405133884974       0.0010335571230604 0 0
C          11.0625984427265998       2.8739268474819046       1.1510292262276693      -0.0001402372003124       0.0002068070921829      -0.0000028630804984 0 0
C          10.4455374386082962       3.6445309986137491       0.1635213341622819      -0.0003109142794373      -0.0002901147306459       0.0002897556816878 0 0
H           9.4160591965124301       3.7471909726224175       0.1059660558386061       0.0006203413704125      -0.0000413709024322      -0.0009826141620238 0 0
C          11.1879338393513095       4.5886577196907599      -0.5733216742991344      -0.0000974460442230       0.0001493191869496      -0.0001703140477900 0 0
H          10.5976064559730094       5.2296891012971312      -1.2236970346040141      -0.0012023898932396       0.0008030843527436      -0.0002613410102219 0 0
C          12.5298787806922309       4.6213564499580677      -0.4201456574466356       0.0000358153004224      -0.0004036985618589      -0.0000151065292355 0 0
H          13.1962791306859728       5.4483751412852337      -0.7806187637933859      -0.0001965395321457       0.0000325980692956      -0.0003761606561231 0 0
C          13.1592052582455601       3.8451370285938862       0.5819015683483918       0.0001221162701230       0.0001669873066144      -0.0001170165134744 0 0
H          14.1723930854170934       4.1561042800294068       0.8238979151559881      -0.0007913510647959      -0.0004933046090116       0.0002760446562931 0 0
C          12.4172741753521585       2.9466274599187923       1.3510650114555462      -0.0001610182719930       0.0000830884280557       0.0001626541349560 0 0
H          12.8313344862947272       2.3797163693888557       2.1866328543275739       0.0005102810417730       0.0013617694434037      -0.0007697783597707 0 0
Si          7.6454679599592961       0.8804103855847075      -5.1828295567468414       0.0000379286345984       0.0001584475593450       0.0000563097580466 0 0
C           9.4108577854052111       0.3188152130496934      -4.9490876309878766      -0.0001746819199002      -0.0001441307273978      -0.0000392616002134 0 0
C          10.3397569334352291       0.2805966264769182      -3.7551494403315306      -0.0002665407850290      -0.0002252523747443       0.0000296712520984 0 0
C          10.6772233030318358      -0.9008827109632814      -3.0741048686087207       0.0000955801998136       0.0003015823105774       0.0000381417248499 0 0
H          10.1166059611197348      -1.8304429619759488      -3.4073809184573434      -0.0013344305910484      -0.0011028819278268      -0.0006820347239900 0 0
C          11.5792482899613347      -0.9517865060679007      -2.0297890190221883       0.0000940216057826       0.0000169930824144       0.0000621142663806 0 0
H          11.7399156640496329      -1.9307256337822338      -1.5287598833804201      -0.0006294015614297      -0.0009631903010004       0.0003935789876742 0 0
C          12.2732863762008257       0.1838863478256984      -1.6788408848344665       0.0003750043647014      -0.0001157364674973      -0.0000302701479968 0 0
H          13.0617089154027841       0.1952643778383447      -0.9234545310978896       0.0005003569153713      -0.0000627063476045       0.0008841170159963 0 0
C          12.0164592005637232       1.3458476667583537      -2.3308068591214721      -0.0000174870015223       0.0000902053167008      -0.0002569655496568 0 0
H          12.5967796060299992       2.2746641738779894      -2.2205763829788925      -0.0006907598013706      -0.0006413130569863       0.0001596599785319 0 0
C          11.0100969443398444       1.4182552141470086      -3.3293698885088703       0.0001256345614177       0.0000456857385154       0.0000966085288323 0 0
H          10.8414790014701410       2.3184592140811708      -3.7739752129215374      -0.0012890212564056      -0.0000226983656692      -0.0007696099425979 0 0
C           9.6372793262783087      -0.4051113851732732      -6.0600159727833542       0.0000288787834077       0.0000085160455866      -0.0003735124226767 0 0
C          10.7294728108631361      -1.3734866364075973      -6.2225374236698245      -0.0001431972768289      -0.0001322108081288       0.0000734248820708 0 0
C          12.0476963017965026      -0.8553460207433812      -6.3909340526794862      -0.0001342302903277      -0.0001320982609172      -0.0000083600713877 0 0
H          12.2400568467206217       0.2129733027596210      -6.3065881897322926      -0.0004594494077728       0.0000470584615008       0.0006142204569029 0 0
C          13.1253454558305389      -1.7492820045629882      -6.4956098481610987      -0.0000884577490398       0.0001525331730932       0.0001450362144771 0 0
H          14.1498925830434317      -1.3539664428705267      -6.5419067138800262       0.0009095584770668       0.0003048305696409       0.0009113413037608 0 0
C          12.9052045092926857      -3.0908380252174412      -6.4645311159138608      -0.0001678552461027       0.0003278438338925      -0.0001435678827126 0 0
H          13.7030071184510511      -3.7923307801021164      -6.6725937790764931       0.0010103465553576      -0.0005482533711646       0.0003942734222801 0 0
C          11.6337014112412405      -3.5561748818308039      -6.1155350595605142       0.0000080493599479      -0.0002969409151270      -0.0002436634925407 0 0
H          11.4358086756264541      -4.6447086409962104      -5.9418497606654626       0.0009085460221328      -0.0000704184360817      -0.0004717732030162 0 0
C          10.5428775475161913      -2.6971550776861100      -6.0557012443319742      -0.0002644727904033      -0.0002542581231712       0.0001864619608330 0 0
H           9.6095413068585440      -3.1011316524987773      -5.7582051136941992       0.0014524360964953       0.0018236153932990      -0.0006160866142958 0 0
C           8.6973986968518844      -0.3771149139861709      -7.2435296736090269       0.0000277085770639      -0.0000444579092663       0.0000265270246678 0 0
C           8.9396708816798007      -1.2312753711299858      -8.3630396226116837      -0.0001618242974233      -0.0003125887042462       0.0001547576925740 0 0
C           7.9558043770231448      -2.0710084814631515      -8.8386167891249841      -0.0002521004888811      -0.0000467220133542       0.0004894208647675 0 0
H           6.9807239392661282      -2.1507110365044171      -8.3002815321316277      -0.0004192972995464      -0.0002484190490971       0.0007088035471455 0 0
C           8.1044634193786713      -2.8193317297288805      -9.9794181321739384      -0.0001111757815613       0.0001075497253584       0.0000688507625101 0 0
H           7.3589363742844771      -3.5812273866095143     -10.2893012212881576      -0.0005773182818272      -0.0014209910903610      -0.0002844083999391 0 0
C           9.2789375731420591      -2.6896936485814038     -10.7413370678964313      -0.0001667178301207      -0.0002145123103407      -0.0000842355979574 0 0
H           9.3631356579984732      -3.1885937942285816     -11.7689573922491864      -0.0001255475203916       0.0007418950470011       0.0031028645335518 0 0
C          10.3539537000663007      -1.9213854989593329     -10.2428380773156338      -0.0002397542833014       0.0001237810106721       0.0000865392558479 0 0
H          11.2019023952021310      -1.7577054004144388     -10.9344175518100784      -0.0000195412494424      -0.0001428663385365      -0.0008005475057814 0 0
C          10.1612414724004854      -1.1977069026630027      -9.0409792253334285      -0.0001076495156989      -0.0002006803910599      -0.0001311874869348 0 0
H          10.9405181081279892      -0.5205032624728774      -8.6825432749097669       0.0006658115583315      -0.0006819767430390      -0.0006463052580415 0 0
C           7.5835428222865406       0.4055318439194762      -6.9968294633513066      -0.0000116196448679       0.0001235038091803       0.0001380828930189 0 0
C           6.6615911061344235       0.8761845643658519      -7.9451623207886257      -0.0002033707438640      -0.0001777919714553       0.0001460069292293 0 0
C           5.3859038186127721       1.3808910801552481      -7.4802778105022032       0.0000088907247864       0.0001441047642178       0.0001339781718254 0 0
H           5.2311847405888026       1.2949734841835010      -6.3588643934772264      -0.0019878153589782       0.0010765098741916      -0.0001147818455607 0 0
C           4.5093415801523573       1.9592673055744310      -8.3687897792633752       0.0000782052797933       0.0002818587509848      -0.0000228831915774 0 0
H           3.5874500677120182       2.3490257000636432      -8.1214509459791060       0.0003170965304370      -0.0011078227091577      -0.0006885792061087 0 0
C           4.7793148971791020       1.8942119670799267      -9.7453610698368287       0.0001391136124283       0.0001169077021910      -0.0001553013870052 0 0
H           4.0321487202518700       2.3055953715174331     -10.4167385554270933      -0.0001291857593194      -0.0017891037722793      -0.0001040021344378 0 0
C           6.0516466427225701       1.4920895573185928     -10.1869918022523951      -0.0000574537907645       0.0002088271412240      -0.0001239734081428 0 0
H           6.2102678893174987       1.5594473142306822     -11.2829285807583908      -0.0013868306956310      -0.0013364489283842      -0.0008011061821666 0 0
C           6.9341503431899838       0.9853590165115897      -9.2888067988478653       0.0001013439718993      -0.0001359977914741       0.0002237878754678 0 0
H           7.8337722822054827       0.5283646397181025      -9.6387065400776510      -0.0009503587378976      -0.0009181450077116      -0.0003944124750016 0 0
C           6.9271061253942996       2.6131049902490959      -4.9843485884784879       0.0002315277794880      -0.0003317930168938       0.0001312959029464 0 0
C           5.7733487068862575       2.7072442618435097      -4.2244419742143533      -0.0001883327679609       0.0001612936171489       0.0001312241478697 0 0
H           5.5106502001438784       1.9085461088928237      -3.6097548228121648      -0.0009145420429657      -0.0000492151981040      -0.0000563400320828 0 0
C           5.1140160732016788       3.9403016762502805      -4.1431231056614140       0.0001120147455928       0.0002384719782025      -0.0000757114405921 0 0
H           4.3660035057808626       4.1564883346251857      -3.3157591877881187       0.0004331745041184       0.0002981145850566      -0.0014889649364838 0 0
C           5.5898838767256871       5.0032823741344679      -4.8876634072650145      -0.0003610320964645       0.0000195839169344       0.0002207242634828 0 0
H           5.0632101896440478       5.9924615342108103      -4.7432097015417956      -0.0009016849060163      -0.0000207703136443      -0.0006964067732574 0 0
C           6.7016881042897927       4.9029207467412288      -5.6774529994849185      -0.0000582636564039       0.0000777451887119      -0.0001516356882830 0 0
H           7.1573466607925162       5.8560819343141253      -6.1448760437864136      -0.0003844061265691      -0.0007482859420266      -0.0000567771125664 0 0
C           7.3474073869867826       3.6928490556697255      -5.7751456063059088      -0.0000197443656542      -0.0002467701043913       0.0004575298225431 0 0
H           8.2590657112345589       3.6012244948111558      -6.2060122789112482      -0.0000507509379603       0.0004051736668323      -0.0001308578954204 0 0
C           6.6674606285144229      -0.4129395323215603      -4.2209186369512173       0.0000998829615314      -0.0003221611137839      -0.0000809383500935 0 0
C           7.2300590409018950      -0.7179120644090945      -2.9566827160988671       0.0000509572812263      -0.0002801696687647       0.0001968773880193 0 0
H           8.0917835573474530      -0.1453168823047863      -2.7037237427011149      -0.0004352062827963      -0.0011545452354997      -0.0001061654671088 0 0
C           6.5961671684758585      -1.6209212214508555      -2.0883927307532275       0.0000972491508068       0.0001208786522955       0.0002537418253329 0 0
H           7.0160432293101058      -1.6923228884128965      -1.1355191290595599       0.0002383817295454      -0.0001116039774470      -0.0016573977474318 0 0
C           5.3562973434875287      -2.1754494125826502      -2.4383994719530184       0.0003554221363470      -0.0001612799742307       0.0001104818343285 0 0
H           4.7929888907897276      -2.7127797079909954      -1.6861085674979199      -0.0011978929411642       0.0000089054970001       0.0010962658097844 0 0
C           4.8273423993849534      -1.9187358730509037      -3.6605278377050925      -0.0002301270998937      -0.0000079111829687      -0.0005326772625390 0 0
H           3.8215062514330502      -2.2592611201657018      -3.8746004029171131       0.0002875569777823       0.0003631146683371       0.0013225190212720 0 0
C           5.4867119605824453      -1.0885394078072013      -4.5538128955986856      -0.0001763678180578      -0.0001914084409032      -0.0000772279099715 0 0
H           5.1045207110364608      -0.8940817130957431      -5.5052744188012541       0.0009869479945662      -0.0000065915708775       0.0002935989562788 0 0
Si         10.2708353669454642      -6.9771890622851798      -0.2257631391568498       0.0000817014368450       0.0000939653145899       0.0001567629457767 0 0
C           8.6119842812639131      -6.1736633333605910      -0.6450346530049388       0.0001574756588342       0.0001510235626342      -0.0001948294473558 0 0
C           8.0461741643330686      -5.8280226455421156      -2.0201851408364346       0.0000659154633995       0.0003156072244022       0.0001871045248498 0 0
C           7.8308402827089481      -4.5006889353187907      -2.4169077273336859       0.0001289507865925       0.0001223044855323       0.0002210110425786 0 0
H           7.9536684429473326      -3.7576075881884141      -1.6873268542034312      -0.0004759433937755      -0.0005124016171477      -0.0016769555757294 0 0
C           7.4692236320010617      -4.1640924354229609      -3.7340343690107645      -0.0000604587707356       0.0001063506135688       0.0000649288553780 0 0
H           7.4692911816439223      -3.1826903709006658      -4.0923164157317817      -0.0020752080448756      -0.0011838249760589       0.0002069918049589 0 0
C           7.2963764596805722      -5.1428228454569442      -4.7264474631710405       0.0002929720781206      -0.0000425639166056      -0.0003859777082084 0 0
H           7.1285043314083234      -4.8955037230270317      -5.7642796954330509      -0.0003588282114130      -0.0002749532613383       0.0005641841202634 0 0
C           7.3606419140436827      -6.4843300801295598      -4.2770515745404030       0.0004021142031004       0.0001240138652547       0.0002404832837902 0 0
H           7.1783757052204642      -7.2119783499592787      -5.1108597724684097      -0.0000938745082904       0.0002137285256074      -0.0004469101540364 0 0
C           7.7650658791594536      -6.8096899941530102      -3.0172195323384288      -0.0002038433727263       0.0003548318808118      -0.0001355873371289 0 0
H           7.8855764952500387      -7.7649716077878814      -2.7613927697205138      -0.0004270058353677      -0.0011273080268936      -0.0010713343276685 0 0
C           8.0056122407579284      -5.9492761168164474       0.5380056226896782       0.0000190110156676      -0.0000808197160802      -0.0000431442025380 0 0
C           6.6491970022677034      -5.5242867834081961       0.7434860811929336       0.0001366398541859       0.0000583473684344      -0.0001025710657207 0 0
C           5.6896506841081784      -6.5183309627510786       0.8291887192759642       0.0001028798630416       0.0000806827446832      -0.0005338392189006 0 0
H           6.0262506405303355      -7.5191318045770572       0.8057553740189429      -0.0000608358384057      -0.0001943235652808      -0.0003323720209208 0 0
C           4.3365902311038571      -6.2800250720919193       1.0303156363002062       0.0001234907031859       0.0001922535190403      -0.0001963066506589 0 0
H           3.6498744336996687      -7.1018859776474308       1.1960043544896566      -0.0002727639353050      -0.0009311535618664       0.0000203845264242 0 0
C           3.9357229787854480      -4.9785750241080660       1.1884684612584937      -0.0000485498452019       0.0001544060367880       0.0000282606495104 0 0
H           2.9087409379997786      -4.6413201144437792       1.5919195335678737       0.0013387949264887      -0.0001795745769524      -0.0006237822746132 0 0
C           4.8542224289878844      -3.9559745832074800       0.8821752894403464       0.0001435286955016       0.0002107826962567      -0.0000564426608873 0 0
H           4.4901435457526979      -2.9565756555358771       0.9384848067146521      -0.0001601847145763       0.0002059951079877       0.0001780654865680 0 0
C           6.1786469687685273      -4.2099615821063523       0.5978513058499304       0.0003000879202832       0.0001381956418096       0.0000833931448608 0 0
H           6.9284875606985947      -3.4493858149535424       0.4036882049413278      -0.0000112601352225       0.0013850223483503      -0.0004918029600624 0 0
C           8.8358439073396511      -6.0971251384671801       1.7710045216239485      -0.0004656759868188      -0.0001451143997790       0.0001324653308742 0 0
C           8.2429683802231910      -6.0002834970136849       3.0875965799002243       0.0001145953569138      -0.0000792632455146       0.0001602702293843 0 0
C           8.8222315703208753      -5.0883948620121213       3.9822233733092247       0.0001225640012576      -0.0000674350579342       0.0001566345607514 0 0
H           9.7826042501290438      -4.4816443442568348       3.6843924845086682      -0.0020824032871159      -0.0004720670168020       0.0002776116307104 0 0
C           8.2879035142022097      -4.9804586172425900       5.2732216056461301       0.0000475005874610       0.0003659765218721       0.0000004358874135 0 0
H           8.6266391705191623      -4.2305382867237205       5.8857186000544388       0.0008946453636985       0.0006650731998294      -0.0004439671665566 0 0
C           7.2957401398646136      -5.8380436976109884       5.7101510081931481      -0.0002853598604629       0.0000667009374423       0.0000169058719486 0 0
H           6.8123003932116513      -5.6686113497395354       6.6476224866459939       0.0006923529577039      -0.0006465759295092      -0.0015514537880228 0 0
C           6.8175549825493853      -6.8537746803175601       4.8160412340293837      -0.0001959858056342       0.0000188396349702       0.0001677045127705 0 0
H           6.0696039641967721      -7.5143930584398424       5.1708319003367231       0.0005007504447112       0.0005858332544896       0.0003434802903626 0 0
C           7.2450685807895621      -6.9221693271886267       3.5507089612562037       0.0000721190978675       0.0000351063109465       0.0000669114255085 0 0
H           6.8116860799004266      -7.6028228641052760       2.7041370774309130      -0.0005549110187082      -0.0003818734558456      -0.0013759654923906 0 0
C          10.0330935976302555      -6.5835225808278279       1.5486838419646010       0.0001595230974358      -0.0000394186758804       0.0000701621957887 0 0
C          11.0178649749752964      -6.7463629973274211       2.6467581537643223      -0.0001315756528160      -0.0000113685451991      -0.0002235588452661 0 0
C          10.8601487576508173      -7.7771536770676271       3.5592063259763571      -0.0000089324230313       0.0001266668671104       0.0002085949671477 0 0
H           9.9285788942465132      -8.2671625402133522       3.6390177153932637      -0.0009009716723981      -0.0000614785755701      -0.0001937990004257 0 0
C          11.8010327701655129      -7.9978844375410896       4.5331309417251342       0.0003272221281364      -0.0000401117448966       0.0005539798392401 0 0
H          11.5877602500618977      -8.7597112956533074       5.2462476942061365      -0.0004442656532491      -0.0010157421483839       0.0000653713672276 0 0
C          13.0180607595567128      -7.3223525919333792       4.6118708182240660       0.0000095036697072       0.0002518900228550       0.0001481153447828 0 0
H          13.7606559724095501      -7.5046937151376234       5.4532031127259986      -0.0000260080827911      -0.0007544956336053      -0.0014749849638393 0 0
C          13.1626393727926825      -6.2944265188023847       3.6995592737522403      -0.0002264949245626       0.0003666429400260       0.0000043367850165 0 0
H          14.0174537762821352      -5.6682348426083191       3.7231010705629766      -0.0006658050854292      -0.0013562725619026      -0.0011023072614730 0 0
C          12.2078818005343024      -6.0379825583617270       2.7022372187370469      -0.0000114841092216       0.0000076511873894      -0.0000539690128304 0 0
H          12.2864208194242597      -5.1717292919454732       2.0161344840493109       0.0002500857781022      -0.0008055447373292       0.0001944529867517 0 0
C           9.9924408385498573      -8.8457697623604048      -0.4281091909302905      -0.0002695737093367      -0.0003563561614498       0.0002641939936708 0 0
C           8.7124286379079940      -9.3675799958198240      -0.2147726812863077       0.0001468682325135       0.0003175421153714       0.0000046514455758 0 0
H           7.9786021223092787      -8.6765143330217107       0.3149887466841804      -0.0010065878169538      -0.0006715906500340      -0.0003140082756794 0 0
C           8.4774493981492274     -10.7240341347040911      -0.3565870008370380      -0.0000855033184707      -0.0001164454674367      -0.0000285782446285 0 0
H           7.5889262289226318     -11.1520738312954162      -0.0616437872837479      -0.0001261860042646      -0.0007248855787309       0.0007009642790110 0 0
C           9.5240832210819857     -11.5717246618396885      -0.7917479811653603      -0.0000489091441799       0.0000093589092396      -0.0001294857244661 0 0
H           9.4277918910088658     -12.6736455640091279      -0.6776650888811936       0.0002317749759872       0.0006564887389663      -0.0000557498937297 0 0
C          10.7252952577053762     -11.0273662189679200      -1.1719769867488206       0.0000614315256142      -0.0001401393925737       0.0001212697840274 0 0
H          11.5389824069116838     -11.6252250204440024      -1.4642842287732627       0.0001909685738850       0.0005928943810561       0.0006299441650623 0 0
C          10.9140412861281835      -9.6245939224104387      -1.0291057193030702      -0.0003009450787481       0.0004026205171028       0.0001246922898324 0 0
H          11.9316410207148724      -9.2785610546665929      -1.1891586093666657      -0.0011827327507148      -0.0001831778885887       0.0001767304255576 0 0
C          11.6067455969982838      -6.0917826354202900      -1.1271533800152702      -0.0000079172265955       0.0001750516319190       0.0002598912991787 0 0
C          12.8436754958144519      -6.7734790718483371      -1.0618414932714260       0.0001496546925540      -0.0001877077681232       0.0000271126414144 0 0
H          12.9062704781945605      -7.5772027975828884      -0.2937150713665924       0.0007101508579368       0.0007444698677653      -0.0009816169959991 0 0
C          13.9480893993346751      -6.3748042452855360      -1.8504598762896940       0.0001695099035540       0.0000483090224018      -0.0002173085999188 0 0
H          14.8593956695643961      -6.9595157973989608      -1.8169432729130399      -0.0012929799469980       0.0014096859647400       0.0006216370437739 0 0
C          13.8292622058255610      -5.2498875103606188      -2.5889645739928580      -0.0002159948416584      -0.0000405314580430      -0.0000923193739274 0 0
H          14.7568339856023840      -4.9851196930755064      -3.0178739042453246       0.0013400414151330       0.0002587909622548       0.0009098540815693 0 0
C          12.6571371953601499      -4.5179335085518382      -2.6082632495834077      -0.0002404243104812       0.0002621373025965      -0.0002455001516857 0 0
H          12.5798531977391121      -3.5805175275821823      -3.0506828402566182       0.0008192316998134      -0.0012371146425129       0.0001247487759760 0 0
C          11.5337237962116603      -4.9533850862339461      -1.9062542281280541      -0.0000386160984721      -0.0003360299619705      -0.0000236584588507 0 0
H          10.6802532364770535      -4.3824719910688454      -1.9648150393427248      -0.0009396878356619       0.0007075848703572      -0.0002306691564841 0 0
Si          6.5900952952057041      -0.5170792603208865      10.0078884605636187       0.0000929657576910       0.0001839877531339      -0.0000062131269046 0 0
C           8.2123949777939576      -1.4177036848086879       9.7351703494515966       0.0000161984734114      -0.0001896885084260      -0.0001988881778611 0 0
C           9.3657709348791816      -1.4306367202031971      10.5897635663530369      -0.0004136730904864       0.0000714005790058       0.0001766714828749 0 0
C          10.5453565806621601      -0.8979640935088119      10.0873409063374133      -0.0000872427015745      -0.0001071366469283       0.0000806473567274 0 0
H          10.5312721660913038      -0.6532775027058386       8.9421390331426487      -0.0003619766990235      -0.0002852256991151       0.0002062251578467 0 0
C          11.6689378770476857      -0.7725193261810599      10.8599513409094151       0.0000351294424028      -0.0002042968781302       0.0002123486377490 0 0
H          12.5143044793248706      -0.4518905614916926      10.4384934618422349      -0.0004803959927333       0.0009323854734913       0.0003526946361827 0 0
C          11.6976792722105536      -1.1828947515116091      12.1774946771064325       0.0000121254440099      -0.0001644311345726       0.0000526510027222 0 0
H          12.5885838544743756      -1.2125216669110561      12.6834489385880449      -0.0016641744964926       0.0000975213807272       0.0005703431717740 0 0
C          10.5348383471465947      -1.6963479305377351      12.7112041468536514      -0.0001107219337512      -0.0003490620684794       0.0001532260306234 0 0
H          10.4714327708553991      -1.9946055560676237      13.6991375247332634      -0.0003079467154696      -0.0002598806065760      -0.0014607909602741 0 0
C           9.3134439054301676      -1.7804918824263238      11.9825330884470826      -0.0002017561917344      -0.0003229660191058      -0.0001391948688635 0 0
H           8.3653576395644453      -2.1894826060174712      12.3939644490250416       0.0011341558536511       0.0007298746806840      -0.0002347532630303 0 0
C           8.1327338939159670      -1.8101302573884532       8.4384980178967322      -0.0000371139404676       0.0002644144535460      -0.0001412417398621 0 0
C           9.3178693450570478      -2.5581122335793682       7.8721049009661801      -0.0000355580652421      -0.0001185814913364      -0.0000587202338458 0 0
C          10.0842967799249958      -2.0150456823898941       6.8666255648322991       0.0000079900723068       0.0004808201921580      -0.0000404575334339 0 0
H          10.0547936033925200      -0.9959662565810303       6.5640894451457061      -0.0004874312586554      -0.0005319495920114       0.0015766509792181 0 0
C          11.1419276927145816      -2.7878481735639427       6.3759371850414412       0.0000405590786203      -0.0001415978226076      -0.0000758604170553 0 0
H          11.7277980949090299      -2.3851255190770164       5.5384670898363781       0.0003681029327651      -0.0000296917144410      -0.0009697608308012 0 0
C          11.2951834552538593      -4.1069476768089315       6.7942882532683297      -0.0000851633629090      -0.0001554593417109       0.0000174407411407 0 0
H          12.0540482925363595      -4.7553739302397862       6.3690001600005948      -0.0004697749717902      -0.0001545524191039       0.0003288886581593 0 0
C          10.4288714186469260      -4.6530973605904471       7.6504182326078212      -0.0000724649516561       0.0001206649155916       0.0001393713259642 0 0
H          10.4184802149339024      -5.6781260923998138       7.8866659549845917       0.0001039087769002      -0.0002815105852759       0.0002696042755251 0 0
C           9.4381386136621241      -3.9398770250755932       8.2754778415898258      -0.0001503964915504       0.0002719375617596      -0.0001352347471319 0 0
H           8.9236897662199883      -4.3177085724150199       9.1203081516469293       0.0003341380158763       0.0000370661811436      -0.0005150753434173 0 0
C           7.0687813958800332      -1.3011516883701582       7.5680585188415943       0.0001371133256481      -0.0000777892403156      -0.0000092886686739 0 0
C           7.0945200861025448      -1.6390273616682765       6.1254609850599353      -0.0000409704052625       0.0000381166732109       0.0001685384792573 0 0
C           6.4822132273195834      -2.7896298119670964       5.7171993056973465      -0.0002485937172851      -0.0000361095801272       0.0002282798576297 0 0
H           5.8711874663542805      -3.3916581276699014       6.3173238083469574       0.0005003569642456       0.0003622631101418      -0.0009954463587956 0 0
C           6.5434586596927913      -3.1859283842864512       4.3837203006337395      -0.0002527692444806       0.0001238937454796      -0.0002506997857362 0 0
H           5.9218026915423412      -3.9456489520313967       3.9450749813376480       0.0015448255337366       0.0006942600482299      -0.0000171252065503 0 0
C           7.2987110058816373      -2.3805956996447457       3.5195578842073463      -0.0000112887841991      -0.0001494674262961       0.0000792675053687 0 0
H           7.3427314519283575      -2.6116675714232600       2.4820569873138836       0.0005073121140311       0.0002786428800811       0.0024122870227680 0 0
C           7.9785476809006468      -1.2316119639566161       3.9557033921729925       0.0000106523390987      -0.0000097556863480       0.0005640409273358 0 0
H           8.5050879321395776      -0.5517769154269452       3.1541279132975184       0.0008074932363234       0.0001216152234531      -0.0010742596489517 0 0
C           7.8940316683032501      -0.8923118644143391       5.2986946843065299       0.0000916424674009      -0.0001836136900730      -0.0000634753045625 0 0
H           8.4341027059417257       0.0181920072749627       5.7175817795667427       0.0021930359207325       0.0006759284280231       0.0000770000191826 0 0
C           5.9955702472291117      -0.7230073120860129       8.2573586571076003      -0.0000188199849872      -0.0001768287863207      -0.0001490871733742 0 0
C           4.6873829384329468      -0.3332219624592865       7.7923859859000473      -0.0001910197805101      -0.0002894062550661       0.0000390227326544 0 0
C           3.5981345417502686      -0.2072459808951578       8.7384558632253242      -0.0002502650361740       0.0000960416084345       0.0005243174155021 0 0
H           3.6907286694324801      -0.4394313179475617       9.8100412291348924      -0.0020682928114952      -0.0004630127830807      -0.0025204854501841 0 0
C           2.3243863433982686      -0.0887815637922330       8.3136926687926618       0.0001707345170530       0.0001581103376815      -0.0000036696843641 0 0
H           1.4946562875916636      -0.1147569297051255       8.9369101467353556      -0.0002944337227952      -0.0000952173566591      -0.0007090767763225 0 0
C           2.0411115477537773      -0.0007223259859377       6.9220787102607231       0.0001109621982036      -0.0003786404718250       0.0000944062665170 0 0
H           1.0038730245974028      -0.1427946356540212       6.7611941898616994      -0.0002839745334207      -0.0012529665477468      -0.0008480923386910 0 0
C           3.0689165181811284      -0.0457202883558684       6.0382524316949819      -0.0000658796065550       0.0002100215079254      -0.0002077203055533 0 0
H           2.8919029174923367      -0.1166351394205457       4.9574698344759645      -0.0004897681125087       0.0000635063203095       0.0016741555752488 0 0
C           4.3559505567624335      -0.1896381761409077       6.4721271804609488      -0.0000353814270898       0.0001661101324886       0.0001560700540016 0 0
H           5.0575629053797675      -0.2756216161925039       5.6622688586536585      -0.0003508512333169      -0.0007880296785965      -0.0012210585866658 0 0
C           6.8422536593174810       1.3212687127704335       9.9973734798833895       0.0001100361864991       0.0000069763293464      -0.0000171286170863 0 0
C           6.1341795314525616       2.2400704592890324       9.2794493176809709       0.0000299963090623       0.0000940357800165      -0.0000429782658984 0 0
H           5.2427313181153288       1.8762849026658421       8.8132505448369436      -0.0006097673696354      -0.0008386449584842      -0.0003372369662829 0 0
C           6.4729683083603247       3.5610046232393882       9.3282747465711839      -0.0002964180857891       0.0001629921808601       0.0000818510388265 0 0
H           5.8580670125492098       4.3174974833383288       8.8669365154790150       0.0013291506655213      -0.0007166523411795       0.0009319567825895 0 0
C           7.5753629277110708       3.9780019045548127      10.0214154247752081       0.0001019263208546      -0.0002107580685723       0.0001983545326620 0 0
H           7.7384257522821684       5.1384762605730323      10.1579321275894596      -0.0000755573629399       0.0010451275021216       0.0007552008452577 0 0
C           8.3748174780300921       3.0935700501432466      10.7238705864000856      -0.0000889776465639      -0.0000641923850150      -0.0000749455820273 0 0
H           9.2510033127796092       3.4160736028466938      11.4415933127231639      -0.0006753676292089      -0.0010419320758537       0.0000426501892355 0 0
C           8.0489423245418976       1.7411205759021662      10.7292948192914714      -0.0001376543644848      -0.0000949972139599      -0.0001653286088140 0 0
H           8.5726156641030968       0.9452676904250026      11.2383041286767327      -0.0004122565662597       0.0012324342135381      -0.0001236560362686 0 0
C           5.7826700679123784      -0.9155019894542837      11.5854454186633298      -0.0000746714871125       0.0002494522567803       0.0001806930503188 0 0
C           5.2786032705345987       0.0430297621660362      12.4617488546802573      -0.0002144566886213       0.0001598704924684       0.0000791149228163 0 0
H           5.5093348518682408       1.0226989369560029      12.1678166589533188       0.0002351066548367      -0.0006121634691629       0.0002259696674308 0 0
C           4.8381710982962609      -0.3915756839466887      13.6993994012883835      -0.0000811434946764       0.0001532772455717      -0.0001894281307398 0 0
H           4.7319533709046180       0.3721501917156831      14.4429546002971705       0.0003892897117753      -0.0006753300939186      -0.0000902605600984 0 0
C           4.7494200117235668      -1.7302494955338419      13.9649457005875917      -0.0002901960010468      -0.0001147481283701      -0.0001573553266562 0 0
H           4.4535982353888919      -1.9998916403060529      15.0367789733016206      -0.0001900718478704       0.0010045017412318       0.0007737372305430 0 0
C           5.1549956016958767      -2.7270919900073838      13.1132152177489036       0.0000006074006432      -0.0001641027181454      -0.0001138956701867 0 0
H           5.3061248818110620      -3.7502843317301728      13.4752941537466153       0.0005131788034944       0.0014604827745190      -0.0000633512315967 0 0
C           5.6989092667410777      -2.2783103922770778      11.9098825614014885      -0.0003493921444559       0.0003121206623834      -0.0002653373095409 0 0
H           6.2060993111510570      -2.9950700151938348      11.2529578128507080      -0.0005347954695139       0.0009158389324473       0.0001987433801888 0 0
Si         -3.4844756633174079       7.5607400574546402      10.5864504791701890       0.0000219589506467      -0.0001720810472972       0.0000523219165928 0 0
C          -2.5029555699943411       5.9664368879874257      10.9099725769755249      -0.0001478514436118      -0.0001559716977567      -0.0001961756110731 0 0
C          -1.8765039351751327       5.5994767013689692      12.1739002887301755      -0.0002504702631693       0.0000211281746206       0.0001953440193650 0 0
C          -2.2243105047462506       6.3917741028830157      13.2528913343645076      -0.0000782150169453      -0.0000818804752220       0.0000609306998395 0 0
H          -3.0270104107061964       7.2148410623620158      13.0302854992322743      -0.0007302288572620       0.0003205182686456      -0.0006387622694706 0 0
C          -1.7331652493301744       6.1273098048797854      14.5408908837089061       0.0000527668879238       0.0003157883016187       0.0001103900491358 0 0
H          -2.1431414904732611       6.7903140909689395      15.3280770016996151       0.0007374487427320      -0.0000226590889558      -0.0010978135906906 0 0
C          -0.7584352766584037       5.1843007578240581      14.7480536348902795       0.0002796519058118      -0.0001530361043933       0.0000658511948939 0 0
H          -0.3350679487225066       5.0478322240667923      15.6205354370268523      -0.0005780402201729       0.0004304586492122      -0.0004334494397803 0 0
C          -0.4035107731965533       4.4011131251555371      13.6392091841504559       0.0000207358477301       0.0001337492803841       0.0002104425976044 0 0
H           0.3630301729623594       3.6756606419979829      13.6728250797971871       0.0005606257454663      -0.0007382386504936      -0.0004464529428205 0 0
C          -0.9008449996656219       4.6206381962134317      12.3788418867525198      -0.0001273902407256      -0.0000542853239718       0.0000826774383343 0 0
H          -0.5308978022424453       4.0692019407821292      11.5674677951021998      -0.0008071441770026      -0.0003305948096760      -0.0018714157667201 0 0
C          -2.4507711793879725       5.2566997574887475       9.7238794977868430      -0.0000735451488087       0.0000313768818396       0.0000245863636419 0 0
C          -2.0140653321316750       3.8497920455957839       9.5817635456481014       0.0005209226635468      -0.0001433648142206       0.0001962071150274 0 0
C          -0.7822239776256883       3.5629822065173582       9.0079417018969874      -0.0001919788064172      -0.0001149490765445       0.0000393094609595 0 0
H          -0.1713351526218392       4.3909039645050347       8.5952971358737535      -0.0003998362008282       0.0003499448185014       0.0010858720140852 0 0
C          -0.3425646300185080       2.2772415682584386       8.9373735722059457       0.0001882055359523       0.0001306754187652       0.0000283307918430 0 0
H           0.7035989243081732       2.0358085558197785       8.6351700478110356      -0.0010600533166891       0.0007137421332121       0.0009797922882519 0 0
C          -1.0490725467540798       1.2754613965694852       9.5787320382798207      -0.0000458321693876       0.0000538545774289      -0.0002347210278661 0 0
H          -0.6086230026812551       0.2823200572294858       9.6012526632755595      -0.0002903560034939      -0.0002376547438128      -0.0001873407952606 0 0
C          -2.2728965850816820       1.6102006691328712      10.2301948361684083       0.0001469593721091      -0.0001471711787302      -0.0000299667702877 0 0
H          -2.7246352333945829       0.8712739073938635      10.8519898390608720      -0.0000848201612194       0.0002092706690877      -0.0003327751683108 0 0
C          -2.7532158187574676       2.8763929385647531      10.2574063733123886       0.0002716541049311       0.0000161407441767      -0.0000514946381627 0 0
H          -3.7122497454590095       3.0906969542702090      10.8082354633627080       0.0001742349443731       0.0002403346348311       0.0003419306594156 0 0
C          -3.1912658093802952       5.8330842332655966       8.5982760868455834       0.0001372124752349       0.0000387400010927      -0.0000166077747753 0 0
C          -3.0383992976148484       5.4474500091654292       7.1442560864486362       0.0002663927788028      -0.0001093434551931       0.0002499958491117 0 0
C          -2.8073305431200763       4.1763652569714305       6.6348559665258140       0.0001427798082105      -0.0000796353258090       0.0001639544926105 0 0
H          -2.8801148407746040       3.3291352148656479       7.2007746518352160       0.0001870318704380       0.0000353677985846      -0.0008976354263656 0 0
C          -2.4687861180020367       4.0144837151232347       5.3077386758757754       0.0000162163417359      -0.0000905090885079       0.0000590666363721 0 0
H          -2.3405286093431754       3.0521169631690634       4.9430843652148360       0.0005037723406561       0.0010183757263890       0.0012394782674709 0 0
C          -2.2556577683272496       5.0751877900540583       4.4391378330292248       0.0000233894739532       0.0001415913834274       0.0001530927035489 0 0
H          -1.9499580099465104       4.9670880073932100       3.4069058147995945      -0.0001709831790439       0.0006678297323078       0.0013082432398529 0 0
C          -2.6105016847622240       6.3336244809635760       4.8922427030921760      -0.0002126127224426       0.0000702913921491       0.0000391476598624 0 0
H          -2.5317923594892155       7.2121259466424172       4.2358082260018577      -0.0003056391812222       0.0000018778003318       0.0001895383169284 0 0
C          -2.9973361699574874       6.4791669552487736       6.1971652136661834       0.0001548509011278       0.0000820130212942      -0.0001553678025186 0 0
H          -3.2540844392304451       7.4887626676097092       6.4506221425984158       0.0007387917072376       0.0010745206932731      -0.0003544800935779 0 0
C          -4.0090116253279362       6.8719142755987255       8.9405540558675884      -0.0000798265318122      -0.0001446112690755      -0.0003095952907472 0 0
C          -5.1973642847930019       7.2739597956227602       8.1670697111028936      -0.0000381411774368      -0.0000155050051043      -0.0001109510704919 0 0
C          -5.7205327439458449       8.5570618785913108       8.3483186782100560      -0.0000161725256872      -0.0002950050025449       0.0000491168948709 0 0
H          -5.0889304467308749       9.3619028922246024       8.8513195284551394      -0.0003630436677454       0.0007815296437880      -0.0012428738997362 0 0
C          -6.9340829684427909       8.9490153631786296       7.7039525123652792       0.0002521478497151      -0.0000194934302745       0.0003311115500244 0 0
H          -7.1473415909389413       9.9661043480374953       7.7696782399423681       0.0013777292391187       0.0000724820345862       0.0003276457006208 0 0
C          -7.5701889710256811       7.9920656656097915       6.9827351752627100       0.0003209994680642       0.0003906665108609       0.0000533737284849 0 0
H          -8.5239120899334253       8.1882453584138357       6.3739206312597405       0.0009555558306124       0.0004209316091373      -0.0003503492860965 0 0
C          -7.0736422909303140       6.7131711060482795       6.8150615719288687      -0.0001821708769881       0.0000428787196212      -0.0000693331010179 0 0
H          -7.7161076013503154       6.0705301904461288       6.0803439419137169      -0.0000411048360789       0.0010796256532036      -0.0001759725154537 0 0
C          -5.8790255838392023       6.3665501993005442       7.4055903072557836      -0.0001469177133894      -0.0000443618852095       0.0002109821821882 0 0
H          -5.5553573373139402       5.3426844843753978       7.1941453401431046      -0.0004539904987747       0.0010570807371224      -0.0006207866515548 0 0
C          -2.2328428799918871       8.8771830220198922      10.4832550588278046      -0.0004103407118924      -0.0001061561528776       0.0000166211274551 0 0
C          -2.5862227972112848      10.1811992989326559      10.1431988767191523       0.0000434970826682       0.0000214885502652       0.0000293263115210 0 0
H          -3.5348384360261278      10.3593695724080028       9.9217163028613520      -0.0014529191282192       0.0000009689162972      -0.0004070903134562 0 0
C          -1.7357563113845718      11.2660552701748085      10.1568290589933561      -0.0002032229607403       0.0002295979420952       0.0001069979816991 0 0
H          -2.0819606954111536      12.2011748837390748       9.8978608016816612       0.0006506647678848       0.0012768452015830       0.0004665093540337 0 0
C          -0.4202787297977312      11.0580152353786207      10.4915470200978280       0.0001015267190694      -0.0000991374561750       0.0000760021730743 0 0
H           0.2939268228744761      11.8203176820232159      10.7427646348661892       0.0000858839389849       0.0003489550360997       0.0010126937547291 0 0
C          -0.0127913109665857       9.7954683220520966      10.9733940832338330      -0.0000858568857101       0.0002197535379183      -0.0001484792874315 0 0
H           1.0057401306887850       9.6495001030091885      11.3510484186843676       0.0011722777206962      -0.0007032048734842       0.0009086792610397 0 0
C          -0.9154926149143333       8.7074631306590771      10.9227249961361732       0.0002567001318642       0.0002565459810989       0.0001309453353174 0 0
H          -0.5845343768581129       7.7299645152064542      11.2810427207247876       0.0002308440551286       0.0012030706397275      -0.0000212401832005 0 0
C          -4.8596465334623318       8.0484370669584617      11.7460278531675684       0.0001590835654171      -0.0002862400517943       0.0000198450331259 0 0
C          -6.0349113685510689       7.2886116018362799      11.7774470537023603       0.0003254210732146      -0.0001075107600390      -0.0001075949700722 0 0
H          -6.0215057940671555       6.2429820399178686      11.2618044366764689      -0.0001044132325002      -0.0000836567003963       0.0007484755117295 0 0
C          -7.1423849993785140       7.6732469124137141      12.5312550759943111      -0.0000190043069595      -0.0002498803211563       0.0002191768757169 0 0
H          -7.9800603433099369       6.9220957014874243      12.6552332805723520       0.0008438941491367       0.0003524404072925       0.0009893924741699 0 0
C          -7.1308754803302197       8.9303903494568146      13.0427813356870068      -0.0001093701090973       0.0000019838550751       0.0000177661848111 0 0
H          -7.9934703467276806       9.3145533382201187      13.5645692028934626      -0.0003107437871332       0.0006483523557105       0.0009876072477488 0 0
C          -6.0269630866283492       9.7663065332027035      13.0504399408300067      -0.0002154134456846      -0.0000489003526435       0.0001888688377308 0 0
H          -5.9459873182349128      10.7892412664495030      13.5994594691919559      -0.0003657766362464      -0.0017738773639038      -0.0005863422914036 0 0
C          -4.8057957926276140       9.2882672635990300      12.4182070008107122       0.0000608694996477      -0.0001931568170915      -0.0001896973666440 0 0
H          -3.8412621402069345       9.8048702852802467      12.4899859361425882      -0.0008638965270396       0.0003688808736268       0.0005066956284903 0 0
Si        -10.5898021443770052       4.9704566121210609      -5.0748278051920863       0.0000218195664965      -0.0001477215851104       0.0001190631642261 0 0
C          -8.8714344239822474       4.2939485722448545      -4.7313278659475619       0.0002009318705223      -0.0000019452288319      -0.0000706032408249 0 0
C          -8.4064367571623979       3.6410882919439223      -3.5638564456255177       0.0001539914569490       0.0000125730906833      -0.0000683090614188 0 0
C          -8.1316330895135902       2.2821698035166609      -3.6558903722027827       0.0001678907645560      -0.0001070907744867      -0.0000850913499345 0 0
H          -8.3664318318330917       1.7997409664678397      -4.5947886262485529      -0.0000620056330180       0.0005033449214660       0.0004147427172473 0 0
C          -7.7299679356457087       1.5345945769545528      -2.5592929924884444      -0.0000718858359344      -0.0000690893171194       0.0001401375739240 0 0
H          -7.6624319230873699       0.4391869461565557      -2.6204430845628575      -0.0000954752003760      -0.0000137635493762       0.0002994371823387 0 0
C          -7.4038335352401834       2.2162445736632681      -1.3628221984729079      -0.0000481661307533      -0.0000137264898906      -0.0000006807208467 0 0
H          -6.8437673706464235       1.6500185361912727      -0.6240940982297580       0.0008399874312695      -0.0011451544859073       0.0011099033988170 0 0
C          -7.5871003894114795       3.5470234942266363      -1.2672304410735218       0.0001838183504307      -0.0000982278776675       0.0001535279710202 0 0
H          -7.2312548936330723       4.1925345602477826      -0.4067635160629386       0.0009474736945494       0.0001692720445266       0.0011457135864871 0 0
C          -8.1209191238084504       4.3046382670065171      -2.3750167303541474       0.0003256262110407       0.0001660433357527      -0.0000626566508046 0 0
H          -8.2640456860927873       5.3293490520888875      -2.3436213403976884       0.0010712072018317       0.0015308073973321       0.0000533162593561 0 0
C          -8.2323197374013759       4.2869870042339553      -5.9686363260983661      -0.0000737430894909       0.0002217955580494      -0.0000404156373557 0 0
C          -6.7638815722346139       4.1711229449494764      -6.0978494819411990      -0.0001040519026271       0.0000162337309302      -0.0000013625313362 0 0
C          -6.0030757000043202       5.3662877490221490      -6.2122188384117187       0.0000075422687538       0.0001036562597503      -0.0001228692900295 0 0
H          -6.6492232315625346       6.2675150928277237      -6.4032890476358153       0.0001491666157385      -0.0006389825036001       0.0009767288528926 0 0
C          -4.6486904231182073       5.3656809683870916      -6.3599848379990958       0.0004401533695487      -0.0001445130297782      -0.0002250536655672 0 0
H          -4.0688746116450485       6.2582896482562411      -6.5096773564951027      -0.0019082881863793      -0.0002972326083713      -0.0000170762989989 0 0
C          -4.0359424478559012       4.1007997165225634      -6.5714975225241510       0.0001125336459467       0.0001374172585589       0.0000449534912797 0 0
H          -2.9821148158479205       4.0528371398388270      -6.7366278770882344      -0.0001771061156181      -0.0002701827561736       0.0003312984340335 0 0
C          -4.7625294231150574       2.9404938080745002      -6.4249865278531599      -0.0001489824014353      -0.0002066523935370      -0.0003151749533971 0 0
H          -4.2984871513868486       1.9235934468779163      -6.7430066254000121      -0.0003646449848438      -0.0000927094298879       0.0001183430633628 0 0
C          -6.1078715219361408       2.9456017216708652      -6.2303576217896923       0.0001392367239846      -0.0000343539597812       0.0000201446865924 0 0
H          -6.6982076545518323       2.0529812260786122      -6.3891089453725076       0.0005299012949959       0.0012382757333171       0.0006940914277241 0 0
C          -9.0272015227410201       4.6015342188014507      -7.1732069530641871      -0.0001563762245352       0.0002033084301504      -0.0000091954940132 0 0
C          -8.4783410857756696       4.6933370392908644      -8.5342955943474585      -0.0000425956311965       0.0001326683609640      -0.0002311768635629 0 0
C          -8.3523321973465734       3.5962630437962115      -9.3857877530435783      -0.0001290762375862       0.0001202269400082      -0.0003147115601128 0 0
H          -8.6644591760214826       2.6159637794304005      -9.0450141854735939       0.0000468374956820       0.0000470503236268      -0.0008580938365272 0 0
C          -7.8475838927618806       3.6957018275130613     -10.6622552975790157      -0.0002008835281015      -0.0001918243819454      -0.0003050687153815 0 0
H          -7.7060078547314159       2.7906103445754620     -11.3322259360962363       0.0001198210102727       0.0011141630549593      -0.0007917246749614 0 0
C          -7.6501229565628437       4.9298603151300338     -11.2723076100474433      -0.0000625660875745      -0.0001449148820385      -0.0003767315655418 0 0
H          -7.5014969217475693       4.9871148623531276     -12.3482544575829198      -0.0009408456751440       0.0003122148180904      -0.0009265658013464 0 0
C          -7.8617681448746497       6.0703225156521103     -10.4746163913648225       0.0000360560717705       0.0000572519295134      -0.0001505830812499 0 0
H          -7.7008860718351313       7.0943247171232793     -10.9985497675410340       0.0003546335041582       0.0005091962416488      -0.0014719353641428 0 0
C          -8.3145736073805558       5.9283510592020043      -9.1867138594619000      -0.0000263363695299      -0.0002067319202831      -0.0001227788657388 0 0
H          -8.7136605672049416       6.7287018684464410      -8.7425775207079113       0.0004837791029644      -0.0008710220832410      -0.0008159863829052 0 0
C         -10.3309314560186625       4.8831834774111096      -6.8953280952716396       0.0000063882246219       0.0001882680116934      -0.0000254987023055 0 0
C         -11.4046289881498311       5.3913079267780741      -7.8053387642104886       0.0001730779034708      -0.0001665101384012       0.0000161058791746 0 0
C         -12.4948826004505396       6.1291002034367041      -7.3554818074523025       0.0004408579176243      -0.0002121475871709      -0.0000398007965472 0 0
H         -12.5272119266893043       6.3960513426631760      -6.2411739013472056       0.0005667314446770       0.0002913914658113       0.0004507181728650 0 0
C         -13.5598158458532119       6.4073757146413497      -8.1884255062666913       0.0000297813476044       0.0002052599931811      -0.0001724349702646 0 0
H         -14.4767723192430289       6.8972615814009250      -7.8395538586742539       0.0007242925954174       0.0008111532236866      -0.0007716043705607 0 0
C         -13.5058771415602390       6.0983286641771617      -9.5177399103893396      -0.0000343491874457       0.0001111001872342      -0.0003870084954331 0 0
H         -14.2644632290009934       6.2985745230241212     -10.1273255360268415       0.0004734808753983       0.0005468578020365       0.0003089804238943 0 0
C         -12.3831789049195002       5.4717716358786754      -9.9818147849742083       0.0000233188887296       0.0001391622342457      -0.0001027237215986 0 0
H         -12.4405652073011428       5.1113561404799341     -11.0310667476041502      -0.0007218530528764       0.0015246449036861       0.0009861626684599 0 0
C         -11.3224181229097915       5.1517638865379300      -9.1690452876009498      -0.0002619267271710      -0.0002687183064168      -0.0000477974298388 0 0
H         -10.4933883291739569       4.7235786182413761      -9.6422143538373444      -0.0013412687421541       0.0006339897273558       0.0001269816572501 0 0
C         -10.8385114806243443       6.8108330556672936      -4.6491882998981193       0.0000340662198526       0.0001557331691655      -0.0000530042841980 0 0
C          -9.9114308676392273       7.7774929339629226      -4.6539091262852699      -0.0000018043062677      -0.0001420201445430       0.0003563706536505 0 0
H          -8.8876633752342524       7.6498129554737293      -5.1972576515780613      -0.0002980121726121       0.0004049829718913      -0.0014750436800738 0 0
C         -10.1187225548515105       9.0845115629795625      -4.1119218191425100       0.0004668315629454      -0.0000605783550037       0.0000377372025639 0 0
H          -9.2899590823065950       9.7539877429657373      -4.1744157303792759      -0.0009405879233405      -0.0002989389805791      -0.0004600716449719 0 0
C         -11.4046480634386835       9.4645459897358801      -3.7876883724010790      -0.0001811743712646      -0.0002511269474685      -0.0000154715943404 0 0
H         -11.7174733792442147      10.4826360885759211      -3.6606623939896052       0.0000413415358599       0.0014772142726225      -0.0014222332039922 0 0
C         -12.4256984980000329       8.5052644648108036      -3.8992181909361010       0.0002539622277268       0.0001669128126113      -0.0001118970807407 0 0
H         -13.4233829238667628       8.7618591857820256      -3.5904543869407584       0.0000475834219795      -0.0000371255543629      -0.0001010863688690 0 0
C         -12.1389941974894295       7.2519341294796904      -4.3251945394321236      -0.0001460543243747       0.0000678033893086       0.0002960991314913 0 0
H         -12.9197131245677195       6.5211486436272068      -4.3434502641466626       0.0001225178076778      -0.0003834263904604      -0.0004320732992086 0 0
C         -11.8854976166262922       3.7781884581157401      -4.5731897152814067       0.0000152847874722      -0.0002375606440455      -0.0002251583450914 0 0
C         -13.0832607202422260       3.8933173073513259      -5.1963233182400286      -0.0003147688660065      -0.0002281254761955       0.0002295226476082 0 0
H         -13.2499789683128864       4.3415047566656986      -6.0866290796118019      -0.0000450316419789       0.0000083880075054      -0.0004783577744527 0 0
C         -14.1809165122878671       3.2313648993663615      -4.6276808520227792       0.0002052393399992       0.0003755348845476      -0.0004467743693089 0 0
H         -15.0759530390700078       3.2522789872678155      -5.1803103157539399       0.0016869671350160      -0.0002699564881492       0.0019694431814588 0 0
C         -13.9865736806958267       2.4366006887865583      -3.4816942116392346       0.0000785079634213      -0.0002610568691518      -0.0001644249524455 0 0
H         -14.7431178058387147       1.7844567150620454      -3.1266693380796586      -0.0002665229564793      -0.0001075585730652       0.0006640294536666 0 0
C         -12.7270628584947065       2.3600865922251963      -2.9171472694322209       0.0002957880178865      -0.0001101480480093      -0.0000640920333044 0 0
H         -12.5776593706637119       1.6929626234887485      -2.0622954240187750       0.0003737487112442       0.0004838812561838      -0.0002376570378189 0 0
C         -11.7012042670885474       3.0236094448336961      -3.4507977216538586      -0.0001480147415193      -0.0000690373668444       0.0000846520852604 0 0
H         -10.6724755213069873       2.8520972342573532      -2.9234766826275078       0.0005404989546491      -0.0003155480833161       0.0006064820991796 0 0
Si        -10.1543656276223953      -2.9803316036872656      -7.4317479637501522       0.0000645204220582       0.0001737489970021       0.0000228599715072 0 0
C          -8.4170707059138774      -3.5576802518525117      -7.2344212636347835      -0.0000530630896044      -0.0000434111967933       0.0000988193508325 0 0
C          -7.6969964038008536      -3.3599509241264633      -6.0118161035879494      -0.0001970190342241      -0.0001265582706516       0.0000599893147071 0 0
C          -8.3415316834701656      -3.2368744591860996      -4.7307681684059810       0.0000334505476454      -0.0002138929417224      -0.0001796485477206 0 0
H          -9.4053361633352992      -3.4735301841626671      -4.7128273514810157       0.0007743532591487      -0.0011420766604164       0.0003123361679746 0 0
C          -7.6474991501248732      -2.9711958501335571      -3.5455793528464401       0.0000541434998652       0.0002699671005367      -0.0002037505711279 0 0
H          -8.1584728972903928      -3.0229308024726871      -2.6468558805658975      -0.0002676422012377       0.0002602783468400       0.0012641071276448 0 0
C          -6.3143988568137255      -2.7390414126862570      -3.6866102384121331       0.0001853771370503       0.0002942979795603      -0.0003024243607723 0 0
H          -5.7157802054443918      -2.7332583450944137      -2.8456841737174674      -0.0006541837009009      -0.0004731888619256      -0.0009097739519500 0 0
C          -5.6602134513815603      -2.7504397675204673      -4.9024404948245586      -0.0001086630709741       0.0001252838138404      -0.0000369062431967 0 0
H          -4.6574972175590883      -2.4361273967807420      -5.0686296077744268      -0.0004789627498578      -0.0006757852354637      -0.0003982834199667 0 0
C          -6.2988930697077752      -3.0955847301041906      -6.0818556891168161       0.0001328089581200      -0.0001839057802853       0.0000929410566636 0 0
H          -5.8859775572953721      -3.2652509062396118      -7.0285473949911719      -0.0007762462505250       0.0000350621140481       0.0019962616561953 0 0
C          -8.1604214192736215      -4.2924060455455608      -8.3562871798132559       0.0000706866313442       0.0000750475531968       0.0000125454686265 0 0
C          -7.3287409205866849      -5.5601109652600558      -8.4688510170307456      -0.0002186176684011      -0.0002346968743232       0.0000795600797199 0 0
C          -5.9337770329351018      -5.5914449456957076      -8.2470739252434146       0.0003326091777131       0.0001906484552503       0.0001636706310771 0 0
H          -5.4006454616361843      -4.6172769307742998      -8.0865710506091073      -0.0014288219785684       0.0000594052309288       0.0006916735807329 0 0
C          -5.2066039134523940      -6.7327509120471705      -8.5179975674441231      -0.0000032830260636      -0.0000958084076392      -0.0002211497567009 0 0
H          -4.1669471584024089      -6.7398861797792682      -8.3827703855001960       0.0011121555523761       0.0001061225829380       0.0001992208663677 0 0
C          -5.8397642898619813      -7.8603911394934576      -9.0175234993756597      -0.0002055552383229      -0.0003794691815035       0.0001652145997527 0 0
H          -5.1982130736036893      -8.6641407974616289      -9.3867438828771590       0.0006603636879944       0.0002087074357034      -0.0009571614629373 0 0
C          -7.2228090117015524      -7.9513085978849887      -9.0383425868092395       0.0000258183202167       0.0005758004745055       0.0000148445245155 0 0
H          -7.7170276020470210      -8.9372794624340628      -9.3171135809476873      -0.0013029206517393      -0.0026798605395899      -0.0013129293220011 0 0
C          -7.9327815283745284      -6.7462832742172631      -8.7651671873220725       0.0001216727950146       0.0001896239448522      -0.0000457337211588 0 0
H          -8.9946042037741254      -6.7122604064367533      -8.8731859404629141      -0.0009269456246193      -0.0003217289984760       0.0007032159823966 0 0
C          -8.9572893075373923      -3.8298988927735582      -9.5636734126352625       0.0000420550784021      -0.0003293459233179       0.0000535491699126 0 0
C          -8.5291182189733927      -3.9460132991163079     -10.9819835151717644      -0.0001925144541092      -0.0000334094003234      -0.0000868120507294 0 0
C          -9.3856871047600592      -3.8558646363851521     -12.0594704116029643       0.0003903755235583       0.0000261184499890       0.0002831257385801 0 0
H         -10.5677848856168470      -3.6020532279208535     -12.0192584361472097      -0.0005918434084065       0.0005748813263795       0.0002427593130933 0 0
C          -8.9174401433736019      -3.8791364394702810     -13.3558780599881981      -0.0001221831263335      -0.0001945771069317      -0.0002802513567549 0 0
H          -9.5013302209774686      -3.7047665349649699     -14.2156045398845698       0.0024545624495373      -0.0014891980777862       0.0013687197765395 0 0
C          -7.5956090060493233      -4.0953838547137371     -13.6049516558989794      -0.0001947432631333      -0.0002225024375219      -0.0002108834928095 0 0
H          -7.2430943443040476      -3.9945888681937172     -14.6600096127015735       0.0006505650129564      -0.0004628255757418      -0.0003187243640613 0 0
C          -6.6964687044132623      -4.1495911152322762     -12.5575056171283048       0.0002300887470738       0.0002957923722651      -0.0002319289016307 0 0
H          -5.6877114751875517      -4.2597085970734732     -12.7402926206313332       0.0004042013241824      -0.0004439132883674      -0.0001789254647834 0 0
C          -7.2001341517318265      -4.1570566148805792     -11.2334517738702875      -0.0002579308861086       0.0002505881678010       0.0001450630280615 0 0
H          -6.4483220236183509      -4.2686785556585622     -10.5053583363976593       0.0004440597150149       0.0000638977356497       0.0000545570462251 0 0
C         -10.1359089711512933      -3.1848724884909525      -9.2624042428860101      -0.0000139482269601      -0.0000725219278931       0.0000449223445590 0 0
C         -10.8115260833603113      -2.2169267282693430     -10.0962101084593883      -0.0001375611050568      -0.0001690668492003       0.0001841923529137 0 0
C         -12.1741128504095819      -2.0361493549030456     -10.1807373583610481       0.0002764639733459      -0.0000022678561904       0.0000871638275460 0 0
H         -12.8813765298729273      -2.7458403493929233      -9.7817465710816069      -0.0003420867296151      -0.0001613174999526      -0.0002356999145815 0 0
C         -12.6964873856306468      -1.0088515194176553     -10.9335014132341666      -0.0001104544854489      -0.0003346012136523      -0.0001036225617419 0 0
H         -13.7490081590877811      -0.9035385351947466     -11.0545728117988880       0.0019496260417461      -0.0008462835162515       0.0000044666081502 0 0
C         -11.9104857426976753      -0.1311878311863867     -11.6523498928912623       0.0000326709710697      -0.0003085501061485       0.0000814715040210 0 0
H         -12.3836174597105995       0.5702382227308814     -12.3202683230946697      -0.0009433397097505      -0.0001286242374762      -0.0002705044325935 0 0
C         -10.5641863452967968      -0.2372513684543785     -11.4672259869673514       0.0000274326879453      -0.0002246458734508      -0.0001305465066692 0 0
H          -9.8498575847385421       0.5265482865949483     -12.0038008876808409      -0.0000987877048323       0.0004615850258673      -0.0013873581971379 0 0
C         -10.0083558343366299      -1.3078260918142157     -10.8079606608743681       0.0000018908208988       0.0000324927690895       0.0002763841537876 0 0
H          -8.9536533266895049      -1.5072792235613464     -10.8582201929363222       0.0004575538233091      -0.0001439785811110       0.0002430274050606 0 0
C         -10.4984349062259703      -1.2455108873214111      -7.0523558382401541       0.0000122927470940       0.0002841798574790       0.0000705146183314 0 0
C         -11.7576033316581547      -0.6642905645123141      -7.0633207777049085       0.0000185661553464       0.0001956319652902       0.0001994979463107 0 0
H         -12.5789787726760842      -1.2187469930983372      -7.5333146694485205      -0.0003664699190963      -0.0004004492292519      -0.0006796764040205 0 0
C         -11.8564470980761367       0.6858924999738395      -6.7721523454600208       0.0001719161627697       0.0000065086494839       0.0001445259677480 0 0
H         -12.8378438462929676       1.2513402294986224      -6.8202469157711878      -0.0002105089738220       0.0003528964915694       0.0004319052646302 0 0
C         -10.7037161204698243       1.4508017000691464      -6.6486130349443799      -0.0000723768016509       0.0000658315529207       0.0001573208566209 0 0
H         -10.8061851660168742       2.5176840349296179      -6.7906466683892939       0.0017657679855890      -0.0002611243422265      -0.0003454617331821 0 0
C          -9.4562200273616721       0.8856067802632758      -6.7309066394364763      -0.0000823823909842       0.0001449080955491       0.0003294713094551 0 0
H          -8.5300012367666298       1.4898126602148087      -6.7754535623954784       0.0012698893213905       0.0001942358219089      -0.0006970367030426 0 0
C          -9.3458566824944302      -0.4633332763573106      -6.9886272127202229      -0.0001447865561888      -0.0001444645286770       0.0001778307731376 0 0
H          -8.3908603084378637      -0.9010329516102420      -7.2134196599926605       0.0009378674068696      -0.0006650606501013      -0.0000303212274212 0 0
C         -11.3290456910767396      -4.1644503546042078      -6.5115728591613138       0.0000800020480387      -0.0001187020187799      -0.0002427607043423 0 0
C         -11.0368611647378252      -4.8116205861712720      -5.3528404997814638      -0.0003764009767586       0.0001528909216250      -0.0002561644798938 0 0
H         -10.0181189747466330      -5.2261053877264310      -5.1019109061855303       0.0035123271760857      -0.0019821212776924       0.0010092714603193 0 0
C         -12.0585569613397308      -5.1562346958989691      -4.4716386366079872      -0.0003226136149775      -0.0001228973414150      -0.0000660740138440 0 0
H         -11.8577814126455383      -5.7360888429459527      -3.6548335508998324       0.0003892212141363      -0.0008998613061810      -0.0004190511181678 0 0
C         -13.3664380378869208      -4.8157392589100194      -4.7376689661601494      -0.0002556759513299       0.0001623478356368       0.0001024232516229 0 0
H         -14.1517771010283173      -5.1644151126397748      -4.1401528723828269       0.0009881109005881       0.0007201000446988       0.0001314689658163 0 0
C         -13.6558627728710036      -4.0826785677484825      -5.8922778366051975       0.0001637722728865       0.0001536660469922      -0.0003983487155925 0 0
H         -14.6806076481981229      -3.8467924516280121      -6.1480383068297568      -0.0007692409619459       0.0002605327257801       0.0005005871225834 0 0
C         -12.6248765543695249      -3.8601615639318867      -6.8108652278634869       0.0001657418726162      -0.0000784410969853       0.0000809229094032 0 0
H         -12.7833027739099254      -3.3727610967513098      -7.6932661115038705      -0.0008917669910389       0.0013986453517782      -0.0013035264949870 0 0
Si         -9.8609798217294085       4.5028903273491272       8.1787139486076743       0.0000381174188171      -0.0000010611050441      -0.0001341398629415 0 0
C          -8.1872540605590558       3.7663724363573738       8.4315318460904418       0.0001627912471043       0.0000693508971760       0.0002081569127212 0 0
C          -7.6437994386665773       3.8597309467709651       9.7719398595624920       0.0000352149992869       0.0001201751640967      -0.0000243679017618 0 0
C          -8.3895614428951504       3.5661762495971381      10.9357613180045696       0.0004101587035333       0.0000850847047080       0.0000936544035685 0 0
H          -9.4831046207843386       3.2639983055727551      10.7748135722480480      -0.0040207750708640      -0.0001375282572384      -0.0008131755264046 0 0
C          -7.7933958627512911       3.5455761241834365      12.1831599795270069      -0.0002003815400277      -0.0001675346591996       0.0002751830917357 0 0
H          -8.4204705412648764       3.2901259825995077      12.9713736074820734       0.0004123346115968       0.0002597197029311      -0.0000338946875406 0 0
C          -6.4154177667552981       3.7875186210224516      12.2874580027479734       0.0000289009193405      -0.0000415706040704      -0.0000574568865140 0 0
H          -6.0417099865566524       3.6973076532169800      13.2655814346886700       0.0006724733234296       0.0002946598853680       0.0006106325802692 0 0
C          -5.6754524617964339       4.1478194896048413      11.2063168433563831      -0.0002776830192884      -0.0003371981606563      -0.0000587818993096 0 0
H          -4.5776025740989486       4.4802901092004070      11.2047406464319881       0.0000407710861818       0.0001726760440786      -0.0002010158238482 0 0
C          -6.2830539228823685       4.1364958111018382       9.9536929270313266       0.0003551885640091       0.0000566947217203       0.0002491136760153 0 0
H          -5.6847769202031371       4.2125543571682558       9.0257255835505763      -0.0003111807062112      -0.0002167157392434       0.0007574554242461 0 0
C          -7.7043534455981098       3.2965356316459022       7.2536238626604783       0.0000586428669620      -0.0001875122031962      -0.0002669591116745 0 0
C          -6.4486598830853454       2.4765067950768014       7.0896190901647600       0.0001701217226604       0.0000455038958786      -0.0000817566598355 0 0
C          -5.5882459753408851       2.5442937448063367       5.9722502942007782      -0.0000163136896778      -0.0000091345991155      -0.0003462312720518 0 0
H          -5.9257793294368328       3.1274019823171590       5.1471718234764747       0.0006288413932011       0.0005695112418009       0.0010245374710682 0 0
C          -4.5201964169379405       1.6582074314562956       5.8816885017033140      -0.0001921756826199      -0.0002633482077530      -0.0000493186033573 0 0
H          -4.0139107856221843       1.5387080268189373       4.9294626226904485      -0.0001725045785471      -0.0000511145305937      -0.0008612974214309 0 0
C          -4.2824027160871614       0.7410099292305101       6.8797842583097797       0.0003705509268375       0.0001661130188150      -0.0002420363136236 0 0
H          -3.5799025632623631      -0.0398403055839074       6.8485946932659658      -0.0003797626572377       0.0008657709733593       0.0011649681927715 0 0
C          -5.0040673980764847       0.8135349894587950       8.0645137462768357      -0.0000671808277213      -0.0001177345450534      -0.0000695684889330 0 0
H          -4.8420196289118564       0.1599202033956993       8.8335286966768471      -0.0011356346580384      -0.0014053211250494       0.0004996844542182 0 0
C          -6.1250219311674838       1.6506014167665017       8.1477329216063392       0.0000141135138121      -0.0001671165779999       0.0002493345328594 0 0
H          -6.7183421826847853       1.7048902274521394       8.9572505263309719       0.0000594861501670       0.0005689134826327       0.0005251338223237 0 0
C          -8.6263061928808202       3.5389046734001290       6.0984138570281372       0.0002528230482211      -0.0001048726868615      -0.0000541666741700 0 0
C          -8.3287906270740653       3.1940400208477868       4.6408312053336633      -0.0001404638987652      -0.0001092756622004      -0.0000335443193577 0 0
C          -9.1229317059624506       2.2479587876726281       4.0370396644007904       0.0002461897323573      -0.0000864057762083      -0.0000276395503565 0 0
H          -9.7635475240686205       1.6542606515887437       4.5571661168511710      -0.0002328952642266      -0.0014011982857811       0.0008487638104314 0 0
C          -9.0918967866920664       2.0028143705471120       2.6888724103717818       0.0000102416987728      -0.0001326264690518       0.0002464147484121 0 0
H          -9.7373973440696808       1.2748786737254623       2.1237496813651981      -0.0006345145863004      -0.0005909879217027      -0.0010042562446391 0 0
C          -8.2289449144522582       2.7454169985250201       1.9418286331169967      -0.0000757980640743       0.0002103279511135      -0.0000203411248309 0 0
H          -8.2751056937882783       2.5564868276277908       0.9172103060718495       0.0000308048289608      -0.0017252238931407      -0.0008284503961615 0 0
C          -7.4201985429317450       3.7329519671799205       2.4670822365820828      -0.0001950889771133       0.0000792762096611      -0.0005024546861732 0 0
H          -6.8067129371672772       4.3989057676490466       1.7676167218895118      -0.0003764323230475      -0.0002076910202569       0.0003401676800327 0 0
C          -7.4628843844444832       3.9254775114921445       3.8322558664013315      -0.0003825883243498       0.0001562188708254       0.0000704816961093 0 0
H          -6.9051307160925557       4.7155148808114422       4.2107593914472634       0.0003534376130582      -0.0009118939116793      -0.0008079404135603 0 0
C          -9.7740026628272663       4.2069122351386685       6.3669005938678467      -0.0000849913334392      -0.0003095792706761      -0.0000745827712705 0 0
C         -10.6542403184905545       4.8410853083138541       5.4058638235243208       0.0002455023698483      -0.0003498999093125       0.0000961007641749 0 0
C         -12.0539802687021087       4.8584999438686918       5.7061424348832590       0.0000360582035031       0.0001481408677340       0.0001426930340541 0 0
H         -12.3420702153276061       4.2948279096444528       6.5372184820727783      -0.0000785271177538       0.0012862199976989      -0.0008082219319233 0 0
C         -12.9594748165117384       5.5373399731141975       4.9725480420540134       0.0000173982259540      -0.0001474125875705      -0.0000464196434737 0 0
H         -14.1102184939600601       5.5130768070474518       5.1522114402502801      -0.0002293701803658       0.0001254988736071       0.0003236539050825 0 0
C         -12.6088188788980560       6.1771599216292179       3.8290795237215298       0.0001843053414835       0.0000114976022298      -0.0003105183970799 0 0
H         -13.3534774054263288       6.6877108708856889       3.2235868300715738      -0.0010328341266167       0.0002635978027097      -0.0005616398061322 0 0
C         -11.2469383875126656       6.2171369119771667       3.5654019786488789       0.0003826094274774      -0.0001781971723874      -0.0001504421318058 0 0
H         -11.0122209565983553       6.7188800502406565       2.7116443252378990      -0.0014770305030824       0.0004979938610516       0.0003505623711980 0 0
C         -10.2825772898367926       5.5836134614591240       4.2767064992007251      -0.0002054344036279       0.0000343970828766      -0.0000652007727094 0 0
H          -9.3131548669065989       5.6404870622478471       4.0521628925441870       0.0000789021612288       0.0006397739695207       0.0001819066147204 0 0
C          -9.9005561657179424       6.3050875556239738       8.6271316969611096       0.0000864772549569      -0.0001407332631367      -0.0001114876076671 0 0
C         -10.3895422964664395       7.2307595097897845       7.7338769779830283      -0.0000722319827754       0.0000225142398642      -0.0001987351428945 0 0
H         -10.4664040702979086       6.9132560337274578       6.6679134507848739       0.0000169781781096       0.0004617113279674       0.0017270806542212 0 0
C         -10.7554592462216441       8.5081516574404592       8.1256110145678360       0.0001190277615374       0.0000494461589673       0.0000532311574314 0 0
H         -11.1195423795917758       9.2797293691451976       7.4392776340206375      -0.0001508868547990      -0.0003957859554296       0.0006336264689176 0 0
C         -10.6538337077839547       8.8663766116433695       9.4879584326803581      -0.0002240917437273       0.0000864955372685      -0.0002434012239598 0 0
H         -10.7750234451880971       9.9305062369290820       9.8192236205239425      -0.0002317196440661      -0.0004794890929515       0.0014723902812976 0 0
C         -10.1889279306675320       7.9338649070749145      10.3775907376414480      -0.0000877295355916      -0.0000209952181337       0.0001612131391107 0 0
H          -9.9815516420170667       8.2618960437007569      11.3455424096424586       0.0000869433268328       0.0002373559648117      -0.0003576456898555 0 0
C          -9.7698163831705394       6.7126521714221310       9.9394575123217539       0.0002205397000565      -0.0001036165457111       0.0001079991617910 0 0
H          -9.1632267706003176       6.0100852065275641      10.6661601527744541      -0.0001133137596467       0.0004337797078684      -0.0007290151091745 0 0
C         -11.1664711150724223       3.5478760231477438       9.0619657659431425      -0.0000873412680243       0.0001032898539263       0.0001863260299418 0 0
C         -11.0161763404947717       2.1687098801763725       8.9980096145551425      -0.0001539849825133      -0.0003190388847161       0.0001692999831334 0 0
H         -10.3954867631820456       1.6535469638892606       8.2594059793089265      -0.0010146123354690       0.0001414203832098      -0.0009864544035758 0 0
C         -11.7777909390507087       1.3904556215298736       9.8341309231478302      -0.0000554431146436       0.0000097165664928      -0.0000602347976547 0 0
H         -11.6704723484361601       0.2549537022882690       9.7426249501126510      -0.0009066245376643       0.0007415111357505      -0.0003762982194432 0 0
C         -12.7289603771903153       1.9381125404505042      10.6160109158459246      -0.0000066950081049       0.0001299425328699       0.0000131997663509 0 0
H         -13.4385363007209673       1.3163658536116063      11.0582306267054413      -0.0013656546755149      -0.0005591475580792      -0.0010156097249240 0 0
C         -12.8726357795392978       3.3395539392096447      10.7023208039461313      -0.0000680345547467      -0.0002618820411422       0.0002254409972639 0 0
H         -13.6336247141437585       3.7989955414003704      11.3683674039426990      -0.0006727192187582       0.0010207946510564      -0.0003659118098870 0 0
C         -12.1255480565959903       4.1294714614843553       9.8444920095086612       0.0003221822818815       0.0000224837768654       0.0000263556947166 0 0
H         -12.4063812790009944       5.0835068576600211       9.7751402342503102      -0.0010195191076782       0.0006851102942460      -0.0002557899681722 0 0
Si         -9.7345052216314603       7.9283883738308258       0.3613773837466905       0.0002590496232194       0.0000832240373235       0.0000627699752309 0 0
C         -11.1720156506254398       8.8773822168637313       1.1157206662122838       0.0002141395885618       0.0000617732763390      -0.0001050313643222 0 0
C         -12.4905092256619792       9.0822627594675094       0.4949754493084308       0.0003876538365573       0.0000533540935918       0.0000392750991264 0 0
C         -13.3576278049243857       8.0114785369324721       0.3589539631252695      -0.0000192104092900       0.0003058327466490       0.0002064061979934 0 0
H         -13.0229457909185395       7.0437827533945212       0.6526326047987406       0.0008952839332372      -0.0005039256203841       0.0009494403427175 0 0
C         -14.4718806522118104       8.0748737431331445      -0.4833696680224477       0.0001602419477595       0.0001372641909554       0.0002188087840594 0 0
H         -15.0805470471746439       7.1742146550982042      -0.6881668731283849      -0.0001349815486933      -0.0000846388526717      -0.0001018762664979 0 0
C         -14.7001971749801932       9.2249413369989046      -1.2370571444637133       0.0001750739344442      -0.0001761637991505       0.0001871182827559 0 0
H         -15.2701754326545611       9.1608930251532215      -2.0076380005685572      -0.0001541669975327       0.0014766948412716       0.0004806085655269 0 0
C         -13.9571818960724130      10.3505239707237102      -1.0036132811196041      -0.0000480838974206      -0.0000694879343639       0.0000002191903483 0 0
H         -14.0259269625877501      11.2123738866513811      -1.7071221249842066      -0.0002289346348683      -0.0002611965836639       0.0003996634830237 0 0
C         -12.8390560009430050      10.2690702685336230      -0.1741853546511242       0.0000782518805691       0.0000789192535167       0.0001180196146887 0 0
H         -12.1329097039346383      11.0545671644356585      -0.2017378183943219      -0.0004971509158427      -0.0002647838760565      -0.0000439300452844 0 0
C         -10.6063714071166331       9.4083435677002605       2.2304721427220868      -0.0002949966974878       0.0001255033864676       0.0002153348521794 0 0
C         -11.3827302172517317      10.3707572887978099       3.1393096458000231      -0.0001394433761785       0.0003214680193822       0.0001276365788746 0 0
C         -12.3461888284415195       9.8966938531452016       4.0309693098714812      -0.0000534323378493       0.0000336813816862      -0.0000011293551256 0 0
H         -12.9387252324061386       8.8678679451778191       3.8402486544889478      -0.0002844546959328      -0.0000710658144762      -0.0003282510728037 0 0
C         -12.7844327263023931      10.7672743863630256       5.0213444284500754      -0.0000410666547519       0.0001797506260578       0.0001060607015697 0 0
H         -13.5898512769189797      10.3614993552447174       5.6728246076327702      -0.0006171178152329       0.0009688533401099      -0.0000488641363143 0 0
C         -12.3092855349442267      12.0480410381097087       5.0708370963506670      -0.0000569330526692      -0.0000452514002618      -0.0000384683079946 0 0
H         -12.8906439885670991      12.7390456735863378       5.6945875669151347      -0.0015588432189521       0.0003732896696058      -0.0000534402401450 0 0
C         -11.3527421045454293      12.5674820473639333       4.2332795439987603      -0.0001321091712435      -0.0000617261414473       0.0000204153767038 0 0
H         -10.8764675631784229      13.6347747537047166       4.2628544394913828      -0.0001100627467461       0.0008102655266827       0.0005809684644422 0 0
C         -10.9925065822849604      11.7089886816782283       3.2143600564245243      -0.0001991374430715       0.0002148345643573       0.0001960985691501 0 0
H         -10.3274231608765472      12.1176991881529172       2.4145189538116805       0.0006223871112176       0.0009869912451449      -0.0006611826740986 0 0
C          -9.2386681708378919       8.9617830401361100       2.5867189854324750       0.0000006730504929       0.0002656467703123       0.0001362468073331 0 0
C          -8.5091229785589952       9.6331376911671072       3.6530722376161586       0.0002300667864448       0.0000333493862877       0.0002414810780180 0 0
C          -7.3135698418092021      10.3083594365956603       3.5575632816568907      -0.0001195742978638       0.0000297168720457       0.0000741375567313 0 0
H          -6.8332557996889483      10.1492797116724400       2.5882112338490670      -0.0000550885690219      -0.0002020958237696       0.0010327111440339 0 0
C          -6.8341436433589102      11.1053430617632429       4.5933365055007664      -0.0001440627035993      -0.0000094136282833       0.0000542152042355 0 0
H          -5.8874630062974180      11.5923281173376740       4.3883597347605896      -0.0003405443379918      -0.0006021748814715      -0.0001191490444343 0 0
C          -7.5744227942373437      11.1871253029080382       5.7932729607532893       0.0001092979737827      -0.0000176344743918       0.0001189212553874 0 0
H          -7.2400613362340689      11.8050917833252349       6.5395103606576477       0.0007901789987185      -0.0006648664535531       0.0009498400795006 0 0
C          -8.7607529765968408      10.4989410042255127       5.9525741136093462       0.0001199772490313       0.0001413365981913      -0.0001462032555429 0 0
H          -9.3756388700614188      10.4846571955065073       6.8021342360750054      -0.0011796516946090      -0.0000585446405637       0.0007053047191272 0 0
C          -9.2043829969462259       9.6892761358243735       4.8922216439079369      -0.0000304251427932      -0.0000160440035743      -0.0001601057968385 0 0
H         -10.1306334430327976       9.1524174440004167       5.0321405396462895      -0.0009369965710893      -0.0015242234337220      -0.0001509425569526 0 0
C          -8.6084491250447766       7.9917572926415081       1.8444563493928485      -0.0001144418757520       0.0002284329855035      -0.0001248509127507 0 0
C          -7.3737843643954051       7.2767253989185399       2.0242070216729182       0.0001816705656870       0.0001360048541392      -0.0002355207293590 0 0
C          -6.7298659542087318       6.6660933694959805       0.9694861843695985      -0.0002111356512218      -0.0000640124937383      -0.0000800706323834 0 0
H          -7.1364819025773301       6.7628254158579448       0.0468874897567953       0.0001751602668061      -0.0001886333375477       0.0012108890526002 0 0
C          -5.5251387156354239       6.0010292479767084       1.1585359933527888      -0.0003746595501418       0.0002141053195697      -0.0000725940221939 0 0
H          -5.0099304812886611       5.6124101926579666       0.2194014883304044       0.0002960822895322       0.0000836713419812      -0.0000888139931341 0 0
C          -4.8868596267872526       6.0106093385583232       2.3703227094626964      -0.0000366260574329       0.0001576186858468      -0.0005320780062783 0 0
H          -3.8860399476032406       5.5311916065771891       2.4883984610343144      -0.0000483498085544      -0.0002871487752003       0.0008430560583825 0 0
C          -5.5648098780719959       6.6100794228388953       3.4664419612114048      -0.0001760829456784      -0.0001171083207863       0.0000716745793203 0 0
H          -5.1528073799608807       6.5282022493369363       4.4246840635432561       0.0001470750581460      -0.0001161797923417      -0.0003222755319393 0 0
C          -6.7978182439371055       7.1067291918924678       3.2921227468576708       0.0001361069827339      -0.0001681284690023       0.0001607435059693 0 0
H          -7.4352989843509318       7.3875738585379738       4.0958491450044399      -0.0016256444747375       0.0012041788348627      -0.0001712771516871 0 0
C         -10.2475892738960610       6.1664296001970778      -0.0886483629390372       0.0000451253467335       0.0000526941243713      -0.0001297585307527 0 0
C         -11.2011665726350742       5.9534586401796625      -1.0714614408328347       0.0001648880399380      -0.0000334721717086      -0.0000257226302196 0 0
H         -11.2994412700611786       6.6568420151193495      -1.9428037769777240       0.0000230290052519      -0.0005864500989167      -0.0001854613269806 0 0
C         -12.0288907253721860       4.8571818487237017      -1.0319429063218517       0.0003988360429286       0.0001128483103571      -0.0001355103336741 0 0
H         -12.8291493477543703       4.5809948138987480      -1.7411310904464581      -0.0003661267787066      -0.0010135821901490      -0.0001690799319587 0 0
C         -11.8614257524430009       3.9059200868964044      -0.0140462377865683       0.0000310716744941       0.0001046314441670      -0.0004407766534968 0 0
H         -12.4506746983005261       2.9760521512969511      -0.0015242943456930      -0.0009586323674119      -0.0012978974393172       0.0013926697488895 0 0
C         -10.8875435545002084       4.0854297469180931       0.9306940544783988      -0.0000327758035376      -0.0000501177473463       0.0001945260511108 0 0
H         -10.7988971352662375       3.4369371574685554       1.7497835674451623       0.0001484072616592      -0.0002479035214536       0.0003714322795974 0 0
C         -10.0704193619441185       5.1855728004394575       0.9007055398598176       0.0000653526529728       0.0000666252081859       0.0002318077296949 0 0
H          -9.2928397541937731       5.3097408284181160       1.5640132318799618      -0.0013608256925881      -0.0000365045657146      -0.0020553358998850 0 0
C          -8.9078027414141410       9.0697191241457578      -0.9226125453121096      -0.0001318274506540      -0.0002190585840226       0.0000025655743456 0 0
C          -8.9604597754327742      10.4477275420125171      -0.7589889322516963       0.0000880840134986       0.0002459862670007       0.0002536418199365 0 0
H          -9.7119343328742058      10.8429999695015198      -0.0482584870774898       0.0000443500465531      -0.0003309009797624       0.0000655144035226 0 0
C          -8.3566799993308027      11.3044097046827563      -1.5975586549629892       0.0000302242705757       0.0000765685999020       0.0002425530970496 0 0
H          -8.5071908638507185      12.4610689302519742      -1.5814675816629837       0.0001301677740751       0.0013989059958995      -0.0004045566184861 0 0
C          -7.6473852488161320      10.7676458692209067      -2.6648887123912433      -0.0001877296598160       0.0000377739945115      -0.0001972761229757 0 0
H          -7.5224698472960583      11.3752234639604737      -3.5242605594860872      -0.0000421376915273       0.0007879643143171      -0.0012642696862519 0 0
C          -7.5043121395484516       9.3997049870305300      -2.8185126102340456      -0.0002218875140974      -0.0001254507447027       0.0001754960683674 0 0
H          -7.0587378064904467       8.9994582531755061      -3.7640685904258682       0.0000409757377022      -0.0004903040286119      -0.0007150755511466 0 0
C          -8.2323063674857924       8.5722390214773263      -1.9677802898214805       0.0001151338448914       0.0004644842868338       0.0001125696699501 0 0
H          -8.4482154652909482       7.5432308074211569      -2.2342145152448727       0.0000759700082298      -0.0001255877214617      -0.0004962685708467 0 0
Si         -0.7244155310413554      -0.4140746662661334     -13.8555011381184894       0.0000010522866342      -0.0000734261522190       0.0001584648857842 0 0
C          -2.2514818576663784       0.0747419659004292     -12.8947523736026106       0.0000766016103015      -0.0000432882968713      -0.0000099761246593 0 0
C          -3.6359797839510657       0.0979741403139451     -13.3499489426535867       0.0001191777851233       0.0000303693932820      -0.0001638377820571 0 0
C          -4.4972115295509347       1.2213615141965468     -13.3841377695775936       0.0002606270605379      -0.0003222092863365      -0.0000458588068622 0 0
H          -4.1848503863122142       2.1989115010315796     -13.1072766063116362      -0.0003189037429967      -0.0001711241065673      -0.0006893379048558 0 0
C          -5.8084867991785236       1.0483899219900508     -13.7660414663424717      -0.0001747297760993       0.0002279202826350      -0.0000623403947656 0 0
H          -6.4291866775920701       1.8725948388654330     -13.8451621143999475       0.0011292937513986      -0.0010553190967463       0.0009794022895162 0 0
C          -6.3107458664627618      -0.1625970992652821     -14.1862386117654022       0.0002982178524399      -0.0000483725457229      -0.0002490984953133 0 0
H          -7.3040998315898902      -0.2541922769919597     -14.5321993627826664      -0.0006622997213987       0.0006188233577481       0.0007176983183535 0 0
C          -5.4884550028722003      -1.2920261140152280     -14.1198079761288540       0.0000428185487192       0.0002757947978675      -0.0000265478859963 0 0
H          -5.9337730549326775      -2.2601797315726007     -14.4011793798746162      -0.0003401545787502       0.0000557258076580       0.0000269530252253 0 0
C          -4.1627459927995591      -1.0898800604727932     -13.7781879013035233       0.0000473817743346      -0.0000318718419543       0.0001287389489523 0 0
H          -3.4942642464788340      -1.8872881948917990     -13.9312743910567534       0.0010185543736729      -0.0005244820206653       0.0006775591715163 0 0
C          -1.7234368991370339       0.7598677394354841     -11.8191101654929653      -0.0002524796574249      -0.0003116546556821      -0.0001448648302921 0 0
C          -2.5314046033097677       1.8728184975644953     -11.2866260678202543      -0.0000230424371320      -0.0001661844194154       0.0000252831161659 0 0
C          -3.5925154921315605       1.6439829277826878     -10.4241315885526991       0.0002724245999377       0.0001294412411994      -0.0000462820568579 0 0
H          -3.9125476104482932       0.6068437324760736     -10.2637785627794020      -0.0001821931282081       0.0001521106112665       0.0000319576783012 0 0
C          -4.2749053545766511       2.7137264217086616      -9.8330459567360879      -0.0003068567988845       0.0000945159006299       0.0000634101672356 0 0
H          -5.1128727713783002       2.5804073411897122      -9.1540560647138225       0.0000927039281135       0.0009353009084690      -0.0008796586274436 0 0
C          -4.0378995615546502       3.9798289217741396     -10.2866873766407778       0.0000577208588771      -0.0000972139308029       0.0003262247559510 0 0
H          -4.6812656185853561       4.6935144829148543      -9.9924641849012676       0.0001509434967713       0.0016630182329991       0.0015427195133701 0 0
C          -3.0111526899817012       4.2826273630526490     -11.1560435392663919      -0.0001468208857411       0.0001288611616867      -0.0001819637133986 0 0
H          -2.8390266072948935       5.2845138499740312     -11.3916780777974243      -0.0002530579793272       0.0016009780385974      -0.0002967765682034 0 0
C          -2.2406093015888651       3.2297548526524227     -11.6193425395685175       0.0001376343032287       0.0000492363816570      -0.0000558149137113 0 0
H          -1.5141163431009406       3.3903978714822269     -12.4290791818765030       0.0004507587813025       0.0003946371799904       0.0009912840843212 0 0
C          -0.2317268204475682       0.6789550325410986     -11.6551495928186135       0.0001744183010515      -0.0001055473610880      -0.0000020327887028 0 0
C           0.5924196505047821       1.7859257720077257     -11.0678941814994261       0.0000308669075693       0.0001059297019126      -0.0001681577570903 0 0
C           1.2767740282771602       2.6678367167235759     -11.8624424231705277      -0.0000438400031616      -0.0000022960021818      -0.0003374587651104 0 0
H           1.3277144066494087       2.5348395547610196     -12.9463291388936241       0.0003279331076411      -0.0002144417004162       0.0025940029155284 0 0
C           1.8904816085922291       3.7377816394095249     -11.2506090714357523      -0.0002256416660986       0.0001037061378798       0.0001815670713703 0 0
H           2.3578911754025560       4.4656401059392685     -11.9475655100651608      -0.0001180177799079      -0.0003169443552038      -0.0016745956517187 0 0
C           1.9565839488572452       3.8633668633783258      -9.8337555658971088       0.0001748874381144       0.0000844316941133      -0.0004866927206178 0 0
H           2.4602292058321624       4.7270600311137692      -9.3116224638442322      -0.0002262533552919      -0.0004523079293359       0.0006710079699463 0 0
C           1.3412302057585670       2.8971402551079946      -9.0709783006680027       0.0000322515418779      -0.0001043285643409       0.0001778471375628 0 0
H           1.3703946048970195       2.9066691849770425      -8.0381439221218365      -0.0002706493947844      -0.0007771957830117      -0.0002358951977230 0 0
C           0.7072092321598102       1.7942969132938167      -9.6361460067488807       0.0001739350219109       0.0000410090099112       0.0001679379135281 0 0
H           0.2583510739793320       0.9891286593062990      -9.0875307952742084      -0.0001155986853352      -0.0004544448865641      -0.0010274509893895 0 0
C           0.3913000729134696      -0.3062252155471166     -12.3673166374556125       0.0002513947200057      -0.0001899802289446      -0.0000410710933419 0 0
C           1.8374375588067451      -0.5823357682809042     -12.3608658404143910       0.0002062433930009      -0.0000467841939319      -0.0002297587807153 0 0
C           2.5147804831306186      -1.0244790763581157     -13.5008893495110982      -0.0005866225481015      -0.0000085520244219       0.0002209928724848 0 0
H           2.0060912373610620      -0.9457258859847408     -14.5086797844491215       0.0000896936394183      -0.0007592181012651       0.0012105735913472 0 0
C           3.7439725424334971      -1.6336746404471900     -13.4016852017415573      -0.0000347867213767      -0.0002277133708437       0.0002045698141863 0 0
H           4.2307980362468989      -2.0920629179746006     -14.2826592259912655       0.0002996278316687       0.0006766961743835       0.0002698470272590 0 0
C           4.3471124547382800      -1.7555180589915114     -12.1464230489468044       0.0002217613866450       0.0000917944436925      -0.0004321047604147 0 0
H           5.2415206993382188      -2.3262843846852062     -12.1387289081416867      -0.0003405904442271       0.0012884471030397      -0.0000107092558994 0 0
C           3.7675083710229509      -1.2756587639573831     -11.0349863742526040       0.0002431297586781      -0.0001117836789724       0.0001811283999831 0 0
H           4.0972637827381231      -1.3835913037025844     -10.0840737437604044      -0.0007859691042559       0.0004146723792904       0.0000515445422218 0 0
C           2.4937793459269844      -0.6709821706360881     -11.1102534655400813      -0.0002672091620134       0.0000213206523133       0.0001478371851095 0 0
H           1.9761906162220646      -0.4094579229087474     -10.2310949777845543       0.0003206336520236       0.0008101411011984       0.0002778254338576 0 0
C          -0.6543169192232674      -1.9359124389420108     -14.9093590535111211       0.0002684860877283       0.0000869903361150      -0.0001316947408280 0 0
C           0.2951184532668651      -2.9071808810062953     -14.7154122588344158      -0.0000873087104173      -0.0000830960475280       0.0001306096270681 0 0
H           1.2373508167574188      -2.8579017591914675     -14.1030262999046574       0.0011089423922688       0.0004875472841725       0.0008362665830638 0 0
C           0.0788861480541423      -4.1667811825111007     -15.1498359376973557      -0.0000941613993342      -0.0001642126607847       0.0002345129471347 0 0
H           0.8247624681518196      -4.9557613142753052     -15.0790429027497037      -0.0011178947551975      -0.0000995441933140      -0.0004835451023052 0 0
C          -0.9602799736515500      -4.4216426301006484     -16.0032906968796063       0.0001895017510925      -0.0001314366655033      -0.0002453125613096 0 0
H          -1.1105939270490370      -5.4210688827316353     -16.4466638866608754       0.0016166344662073       0.0019391715502590       0.0017990080859645 0 0
C          -1.8417288862198831      -3.4282159057329351     -16.3514316299262070       0.0002382762805773      -0.0000674581305981       0.0001246782325616 0 0
H          -2.5377224041875044      -3.6323686440475385     -17.1921444233998137       0.0005788110761711      -0.0001497739325117      -0.0001626704624659 0 0
C          -1.7747700645441464      -2.1949415594790058     -15.7144942685084601       0.0000240582351333      -0.0003428751244253      -0.0001282734423427 0 0
H          -2.4546029507476899      -1.3719652950791248     -16.0704992163701519       0.0006310206961572      -0.0007223746527933      -0.0000411422903790 0 0
C          -0.3227721763811876       1.1311583256411317     -14.7893974346833676      -0.0003117294916252       0.0000655095401452      -0.0001526740702703 0 0
C          -1.4435271393119844       1.8577416947492897     -15.2310137618667358      -0.0001381549387501      -0.0000281724472485       0.0001164466394203 0 0
H          -2.4287762883190447       1.4014401068618347     -15.1780314067573965      -0.0000834124991018      -0.0005639166159626      -0.0004178077707554 0 0
C          -1.3152739156253412       3.1293473036640864     -15.7867580196277917      -0.0000581822813315      -0.0000185875065209       0.0002193440207062 0 0
H          -2.1610141628844892       3.7473873371780084     -16.1384926381756948      -0.0006895759254229       0.0010737918615396      -0.0005434943560418 0 0
C          -0.0402120917287497       3.6512594006378527     -15.9437434388439971      -0.0000214325329609      -0.0003968378475867      -0.0004015269093172 0 0
H           0.0478944786322101       4.6364442270568773     -16.3468612288985113      -0.0003493360451427       0.0007190909748784      -0.0024361606463872 0 0
C           1.0860078314552473       2.8787349251745296     -15.6304726672634331      -0.0000008505669836       0.0004965446486571       0.0001852597382344 0 0
H           2.0411172649098464       3.3676094562006140     -15.7378686180756020      -0.0005403446416031      -0.0007967042807936       0.0002889388110266 0 0
C           0.9332588010573575       1.6024926310388241     -15.1751611006647931      -0.0002307308297796      -0.0001654240995442       0.0003058494143942 0 0
H           1.7986569318406893       1.0000505436304654     -14.9924788050384290       0.0013133063194017      -0.0014218907524141      -0.0008155504974765 0 0
Si          5.3529800471369455      -9.1145863140855390      -6.9906226797918567      -0.0000591886616827       0.0000592312503033       0.0000827037029762 0 0
C           7.1473914153789542      -8.7743249827502527      -6.9840144260268877      -0.0000204063121806      -0.0000753555225356      -0.0001045446594083 0 0
C           8.1113307842866256      -9.1458208048072578      -5.9974518192606912      -0.0000970594614218      -0.0001578795699356       0.0000562521250452 0 0
C           7.6897477403042487      -9.9936109634241870      -4.9388942670618539      -0.0001161964484937       0.0001297807994644      -0.0001293298060377 0 0
H           6.6764860101859700     -10.3343801181165524      -5.0048927405972785       0.0012995585994379       0.0000058584716473       0.0000317401716530 0 0
C           8.5546243424539234     -10.4175292310592997      -3.9255176955416586      -0.0001199232245067      -0.0000009810825610      -0.0000829412720968 0 0
H           8.1826417646283502     -10.9635963728831278      -3.1223595001072111       0.0007958586850983      -0.0004373885507682       0.0008995168532855 0 0
C           9.9181435852834223     -10.0902463389770727      -4.0703568889399309       0.0000621179292770       0.0002776134850608       0.0001007619968633 0 0
H          10.6859270319902997     -10.4778639569155185      -3.4338801751756507       0.0005675675415150      -0.0002826660020646       0.0018815862395468 0 0
C          10.3292903758723185      -9.2437989180787135      -5.0493265438165347       0.0000589430000217      -0.0003372695412585       0.0001279131903697 0 0
H          11.3439945298910416      -8.9932388740384539      -5.2263562832786921      -0.0013409542590654      -0.0001582386366707       0.0007331615045606 0 0
C           9.4602848966834845      -8.8089705947331201      -6.0583584732292008      -0.0000187884173826       0.0002321795130173      -0.0000425768673064 0 0
H           9.7644491371273183      -8.1101062009145153      -6.8263348281008263      -0.0008206509071625      -0.0003985372230284      -0.0003201035317030 0 0
C           7.3252441287218808      -8.0585154745947261      -8.1445557388227492      -0.0001846370275878       0.0002942658674477      -0.0000261791489369 0 0
C           8.5688073977145578      -7.2527460216601654      -8.4190129743150219       0.0000079433995052       0.0001064623497839       0.0001689082663868 0 0
C           8.6423259363544904      -5.9374639750038138      -7.9353228401016347      -0.0001529873426656      -0.0000689479478392       0.0002548308974487 0 0
H           7.7324525158251438      -5.5030454743707642      -7.5485132579335321       0.0005258799909239       0.0001084837377595      -0.0007499900098736 0 0
C           9.7163993191061468      -5.0851066747140399      -8.2674871624408084       0.0004405268764815       0.0001074423289138      -0.0004954799521147 0 0
H           9.6177296023181338      -4.0516416690840336      -7.9529202331045381      -0.0011963379520741       0.0001578042957822       0.0006101042041282 0 0
C          10.5450925869322401      -5.3992411563764389      -9.3457914723312072      -0.0000587968430138       0.0003216660143502       0.0002917953656386 0 0
H          11.0169473297241751      -4.6589623637855953      -9.9820692447087751      -0.0006363564854903       0.0011260277029018      -0.0009803158786546 0 0
C          10.4790962717178608      -6.7280417687529379      -9.7321799702174232       0.0000561867181457       0.0001556297095109       0.0001262145687394 0 0
H          11.0070339373783597      -7.0406445106242366     -10.5787703113772782      -0.0002241457615011      -0.0002549207546773      -0.0004787677489329 0 0
C           9.4934854839060989      -7.6119074526306161      -9.3446404379209405       0.0000008079683387      -0.0001529747636905       0.0000192622698564 0 0
H           9.3080696486827943      -8.5483538336728913      -9.9512880718409704       0.0007850138005966       0.0005107499400712      -0.0003918473553650 0 0
C           6.0921662413225182      -7.8124318399619108      -8.9851953285310042      -0.0002095977266154       0.0000350209724646      -0.0001576540463478 0 0
C           6.1930595927526122      -7.0188182826527727     -10.2306145537651272      -0.0001590096567076      -0.0001221016488613       0.0001466967958312 0 0
C           7.1653779793927637      -7.1795030282315730     -11.1913147701924842       0.0001895795295691       0.0003362451909240      -0.0001709921741125 0 0
H           7.6965898605540035      -8.1203272418515589     -11.2675065648975483       0.0004727158891572      -0.0001533604485239       0.0003754006689504 0 0
C           7.2623445370045943      -6.2458569773895674     -12.2057482035135081       0.0000877401912529      -0.0001257936753388      -0.0001672832022431 0 0
H           8.0286987271746817      -6.3299057533078855     -12.9674211974008635      -0.0001190872330220       0.0006114237905181      -0.0002770226857919 0 0
C           6.3160580639588400      -5.2605497209263063     -12.3396382799646265       0.0001228093548494       0.0000418006621929      -0.0002274847152068 0 0
H           6.2739567569768635      -4.5936241115545817     -13.1712823885687271       0.0010433298752342      -0.0001004473225630      -0.0001717085074844 0 0
C           5.3171825861962736      -5.1061566869933745     -11.4002768183928662       0.0001268750309345      -0.0002897634166644      -0.0001001050855621 0 0
H           4.5661546076972703      -4.2351605616227204     -11.6496583485782335      -0.0005425022019251       0.0012116502019308      -0.0009644111327620 0 0
C           5.1843097296823570      -6.0014447176806494     -10.4411140193564300       0.0003039887001368       0.0000546111585982      -0.0000387528447182 0 0
H           4.3490295829537384      -6.0061520489837106      -9.8642265686439465       0.0005610792989153       0.0004662384165055       0.0008896251369445 0 0
C           5.1061753323412011      -8.7190463889076835      -8.7674798732489752       0.0002581024081420      -0.0000328570875629       0.0000942049357877 0 0
C           3.9757834431196009      -9.1671068220722063      -9.6718442490626479       0.0001851527874597       0.0002806165938833      -0.0001920433898969 0 0
C           3.0391012637629164      -9.9718110169385934      -9.0912286381648659       0.0001974859217843       0.0000227974775154       0.0001135599832492 0 0
H           3.0445972498447649     -10.3234120525150477      -8.0426379814880651      -0.0004526978102217       0.0013739221159154      -0.0007515742166302 0 0
C           2.0066839576339306     -10.4633732368455981      -9.8684105695398419       0.0000811028530967      -0.0000498991047033      -0.0000388739227046 0 0
H           1.2907518844479235     -11.1725229847513656      -9.3773913039226624       0.0006454752798268      -0.0000298792290224       0.0006027664352652 0 0
C           1.9478449904254862     -10.1827557298126781     -11.1915587508763448      -0.0000064179514113      -0.0002376374711557      -0.0001661476695762 0 0
H           1.1990017983316117     -10.6326125275454597     -11.9032375334582863      -0.0002103941250343      -0.0002556900232411      -0.0005974023947305 0 0
C           2.9066384989229164      -9.3875006944025934     -11.7835417625698167      -0.0000079352855901      -0.0002917403471076       0.0003809393513488 0 0
H           2.9056719621373897      -9.2209722946614292     -12.8804122380001669      -0.0008898821453596       0.0002475665946461      -0.0005449470981032 0 0
C           3.9317410368896790      -8.8250917237556123     -11.0215252370565562      -0.0001427606322011      -0.0002042848347620       0.0000271784934892 0 0
H           4.5560918138171536      -8.2275521837802525     -11.5495812739133132       0.0001674614766743       0.0009396288573774      -0.0009211077016963 0 0
C           4.5854251526802328      -7.7572149982220111      -6.0067744146520257       0.0001565140906004       0.0002935124194285       0.0003462806796690 0 0
C           4.3611493364650267      -7.9534039270990844      -4.6559974249360838      -0.0000778084428285      -0.0000352361663694       0.0002128800945022 0 0
H           4.4695632196080055      -8.9068488283267282      -4.3104352978630622      -0.0000565607757808      -0.0002798053620832      -0.0004652971787726 0 0
C           3.9519881257543314      -6.9470618961539943      -3.8381498015494908      -0.0001534873374578      -0.0001703783506411       0.0000168352806970 0 0
H           3.6267266489841559      -7.1658673390513847      -2.7728329338230164      -0.0008661978282266      -0.0002003883126820       0.0008960641431430 0 0
C           3.7478619735893792      -5.6740418317524242      -4.3852408002455832      -0.0001254576497190       0.0002523454786084      -0.0003485944944548 0 0
H           3.2998941515303537      -4.8761425223139918      -3.7442282937454188      -0.0001422450686823      -0.0009370647278293       0.0002018632694284 0 0
C           4.1044829524466646      -5.4517609569446952      -5.7072263775603496       0.0000319529547229       0.0000148741610123       0.0001825851150016 0 0
H           3.9276827727130090      -4.3601641501899495      -6.1508508495257699       0.0003627034897643      -0.0003286960437217       0.0005892079985214 0 0
C           4.5027839701291539      -6.4540709593347545      -6.5396924893514132       0.0000942330858877       0.0002819669358662      -0.0000878251689669 0 0
H           4.8719467539486585      -6.3798639413274350      -7.5916222869448475       0.0005397683901161       0.0003506811407615       0.0000357098165035 0 0
C           5.2400724485583501     -10.8954206610446214      -6.5249329916393641       0.0001603264904649      -0.0001684150960372      -0.0000418056099200 0 0
C           6.0844180937701191     -11.6787123397566734      -7.2480747945508606       0.0004272948267232      -0.0000624117951498       0.0001853747598671 0 0
H           6.7232844917948178     -11.3285980420897410      -8.0397233014254166       0.0000953897261029       0.0002506084102260      -0.0010140946386417 0 0
C           6.2399724185584402     -13.0282470261174321      -6.9452367376067317       0.0002105489083217       0.0002108326758087       0.0000580835065315 0 0
H           7.0283155402007358     -13.5942763330801810      -7.5744396780618199       0.0002569489131977      -0.0004899470516146      -0.0001791996232764 0 0
C           5.5103257835992725     -13.5930171641896873      -5.9037926294694891      -0.0000157481145481       0.0002311274668511      -0.0000112077378947 0 0
H           5.3967172829787042     -14.6703230832846021      -5.8950019443220807      -0.0004060769961523      -0.0000736083679422      -0.0005401631451776 0 0
C           4.7105501236430323     -12.7563504685946985      -5.1512754912724095       0.0002865734984599      -0.0003311235885813       0.0001658831978978 0 0
H           4.0335868301570263     -13.2087976370357207      -4.3997019306442011      -0.0011804712123326      -0.0000963046032057       0.0012170944636936 0 0
C           4.5089908921324584     -11.4383695836561454      -5.4562709076851919      -0.0001523724361785       0.0000850656984517      -0.0000851490144579 0 0
H           3.6018263600321672     -11.0200877795786685      -5.1338735068681070      -0.0016062914882923      -0.0006139119860792       0.0002853551907669 0 0
Si          5.3324360838175524      -8.8893306939704448       7.7097588521503360       0.0000629286945272       0.0001289177378488      -0.0001102429491023 0 0
C           7.0379147434311378      -9.3306867622462573       7.2315165051627543      -0.0001675672547758      -0.0002825614913784      -0.0001221880395349 0 0
C           8.2128669987537570      -9.0542527005949989       8.0948227621360740      -0.0000104342198564       0.0001201739668067       0.0003593080823990 0 0
C           8.0485110870734680      -9.3268441153562875       9.4728718476387304      -0.0003586642432219      -0.0000154516693376      -0.0000231001653483 0 0
H           7.1333136147596941      -9.6816299275963118       9.8884207290716635       0.0001496480228949       0.0004919993455481      -0.0003024352412499 0 0
C           9.1236141815813507      -9.0976935279375422      10.3639928922641325       0.0005544810942422       0.0002520948435516       0.0003687153737546 0 0
H           8.9551200546864589      -9.3060770688498966      11.3820017417077413      -0.0000023592183962       0.0005358612452352       0.0000422380911353 0 0
C          10.3116413142388925      -8.6612607374238433       9.8733176339433601      -0.0001342658874469       0.0001775302922251       0.0001109362698631 0 0
H          11.1026028013555411      -8.5119681448856319      10.5081212701289459       0.0009450273244876       0.0006481969122235       0.0007872328294323 0 0
C          10.5079431646270525      -8.3360608742370363       8.5434714549823969      -0.0001989971559796       0.0001818671571800       0.0001016570133225 0 0
H          11.4983257601052191      -8.0841956549130192       8.0626172575893147      -0.0004782144063376       0.0006516122998013       0.0006031280911307 0 0
C           9.3982610953677259      -8.4755125260189494       7.6780474470568914      -0.0003465433849502      -0.0000596350716449       0.0001426382995858 0 0
H           9.4631596778890490      -8.2622975738326669       6.5737144886667807      -0.0003311868934380       0.0006075021159580       0.0011758439953977 0 0
C           6.9760646181403487      -9.6568428136822604       5.9135960456997942      -0.0001427642186169      -0.0001670676429474       0.0000934919982568 0 0
C           8.1247831783443463     -10.2859274795563955       5.2532524015649846      -0.0004983968358542       0.0001589446869592      -0.0001573217689211 0 0
C           8.4115467752384880     -10.0111298854093107       3.9061970323336896       0.0001167436076030      -0.0000803298288966       0.0000169710513744 0 0
H           7.6598052555613840      -9.4304700466932534       3.3312913714626120       0.0005779793792341      -0.0002919380863668      -0.0000704047478919 0 0
C           9.4985144186181110     -10.5549462558290141       3.2784855719516881      -0.0000890065984593      -0.0002077355094339       0.0000559803176554 0 0
H           9.6847062995962485     -10.3879285255888032       2.2952644807993292       0.0002907736682377      -0.0007598338896762       0.0011807625089895 0 0
C          10.1795630215044621     -11.6157577830631027       3.9116070075410851      -0.0001744783323990       0.0003800065121801      -0.0002545253993525 0 0
H          10.7980234251834784     -12.3044124823645689       3.4106333195711414       0.0003686043647845      -0.0011125326823213       0.0000875627280566 0 0
C           9.9388813333942316     -11.8349552107895590       5.3153061042913805       0.0000880519236118      -0.0000961335532605       0.0003557772123392 0 0
H          10.5374517378416215     -12.5804282414541433       5.8036236803823362      -0.0009371626118700       0.0007495145812315      -0.0005500921694314 0 0
C           8.9183776166581961     -11.2012027805400507       5.9340241169288923       0.0000970461982235       0.0002434385619057       0.0000058206658061 0 0
H           8.6533628965128386     -11.4738729165354751       6.9689823992124307      -0.0005097553991096       0.0011193242851484       0.0004178792252614 0 0
C           5.5504026758776970      -9.7418961943950269       5.3556539353810688      -0.0000493253470192       0.0001996497789793      -0.0001281716378607 0 0
C           5.3148675882726470     -10.4569259870115250       4.0795003908286818      -0.0001125011426410       0.0000657495170467       0.0002837267857543 0 0
C           5.4801244798724023     -11.8159488681559584       3.8870257763959084      -0.0002979116771676      -0.0001770642076715       0.0000010662556457 0 0
H           5.6968770735581105     -12.3775249612687492       4.6888598841482558       0.0005272844364152      -0.0003449417817159       0.0000652987410175 0 0
C           5.2940443076479360     -12.3807539118383456       2.6771579237324841      -0.0003229568857821       0.0001128401944477      -0.0000804810908204 0 0
H           5.4532818580398184     -13.5488980349441839       2.3944079454419462       0.0004254453343454      -0.0010085438210455      -0.0008835093305769 0 0
C           4.9995367990920636     -11.6148109325824187       1.5500905745551405       0.0000826793424062      -0.0000441447477128       0.0000981367614594 0 0
H           4.8266455182612340     -12.0820736761186875       0.5488534881211983      -0.0002052812110577       0.0007162728952859      -0.0015264140939888 0 0
C           4.9293955023684086     -10.2654343035849021       1.7405977258509862      -0.0000381104811773       0.0006131395920966       0.0002512688479662 0 0
H           4.8156494510442833      -9.6418147142560056       0.8798541140264652       0.0006848221999990      -0.0011323718297284       0.0006245253385375 0 0
C           5.0233877533667366      -9.6974088417250979       2.9676026759642880       0.0000154897978171      -0.0001067653471953       0.0000684173549413 0 0
H           4.9346562349984344      -8.5765003836121281       3.0093449712335123       0.0011902954437427       0.0011985875509169       0.0002756813173554 0 0
C           4.5592909454519068      -9.3989392919470198       6.1823136440379916       0.0002244726146037      -0.0000858528030759      -0.0000268236413584 0 0
C           3.0972021059191452      -9.5246823895053918       6.0575565454933313      -0.0001869027179349      -0.0000761112977566       0.0000033829944454 0 0
C           2.2539411305761456      -8.8762077143070837       7.0025536316090289      -0.0002082101694603      -0.0000298797832166       0.0004030195806530 0 0
H           2.7283028729188938      -8.1102277691552214       7.6279363166163021       0.0010626087895760       0.0001767380717257       0.0001091137512588 0 0
C           0.9146110338223349      -9.0544215294635055       6.9619704531659385       0.0000345634962376      -0.0002079952158027      -0.0000813077635405 0 0
H           0.2623945391825196      -8.5196796775149224       7.6618077024762536       0.0009647475088382      -0.0001103570431104       0.0009600562753221 0 0
C           0.3635394417095527      -9.8050278339317583       5.9904595158799632      -0.0000826818999265       0.0000251367564208       0.0000730748043310 0 0
H          -0.7051383656353706      -9.8720470629838939       5.8861612831398675      -0.0001880355795009      -0.0010138977973062      -0.0001750286264559 0 0
C           1.1610203906734369     -10.4515696804442459       5.0736088415420264       0.0003822813722874      -0.0001981974706035      -0.0002793247919566 0 0
H           0.6479276760381891     -11.1298954164147545       4.3352202076795008       0.0000103005536118       0.0006626521059860       0.0008374552158629 0 0
C           2.5516684771107880     -10.3250772622922149       5.1076034951409559      -0.0000498214497995       0.0001075899234158       0.0000755451752484 0 0
H           3.2178011403149367     -10.8987851597784111       4.2614617252863525       0.0003102184686056      -0.0006591705632207      -0.0002277043713684 0 0
C           5.2882569721899193      -7.0284128613547736       7.8932258758101126       0.0001729205959919      -0.0001600146570199      -0.0004833295691428 0 0
C           4.5009007108474242      -6.2195023090576633       7.0657899681064595      -0.0002392957862329       0.0005798105727232      -0.0002923558070987 0 0
H           4.0779918151891312      -6.6736877532846730       6.2423826484185900       0.0003916145083589      -0.0003263265575473       0.0014166307791711 0 0
C           4.4266505601439183      -4.8702663800394612       7.2813876875859762       0.0000998750830389      -0.0005131502891369      -0.0002492034113274 0 0
H           3.8992414540699403      -4.3268852046121875       6.5382156594641048      -0.0006409648856205       0.0001640954235087      -0.0010270999364237 0 0
C           5.1826281979997146      -4.2393095534907568       8.2380846458442161      -0.0002299689847070       0.0000870074955006       0.0000579343699909 0 0
H           5.2182232162611362      -3.1685418642950944       8.3385276858337463      -0.0006217961765563      -0.0009447773711137       0.0005059823276483 0 0
C           5.9989772892436086      -5.0079799819757262       9.0510453971846108      -0.0001859164940390      -0.0003372431083058      -0.0001392771249883 0 0
H           6.6924867187269035      -4.5614000178616694       9.7949771582243521       0.0013306790130598       0.0001819203995472       0.0013088769727796 0 0
C           6.0875681153311723      -6.3777351096332131       8.8619122608579328       0.0003247033562161       0.0001786347116876      -0.0000548081336400 0 0
H           6.8434365797372552      -6.9707070079403204       9.3986765687290426       0.0001632241106370      -0.0005937035786668      -0.0003863007433196 0 0
C           4.9517451364275509      -9.9076053503878097       9.2134638987804180       0.0002104560870441      -0.0001608454734744       0.0002915877292602 0 0
C           4.7126458010234460     -11.2424575944785907       9.0057346494361266       0.0000871178393317       0.0000140526206557       0.0002117873464336 0 0
H           4.6274514711794836     -11.7215050708247244       8.0209922511125722      -0.0006342475329917       0.0002120292144648       0.0003859919802288 0 0
C           4.5309936752930255     -12.0678965131536184      10.1130755303578184       0.0000852991134727       0.0000418742445151      -0.0001828444020469 0 0
H           4.5172300511344785     -13.1984597059062061      10.0503340183695222      -0.0002207138125760       0.0013020609012259       0.0002150073018607 0 0
C           4.4161952105045366     -11.4692661350216945      11.3472604464259295      -0.0000051825435713       0.0001680515269579      -0.0002385506462155 0 0
H           4.0362607235129673     -12.0820920483304306      12.1694744643703512      -0.0018054765399946      -0.0000395925256058      -0.0002752673653754 0 0
C           4.5711292832366928     -10.1087080443839561      11.5518929183718413       0.0000858575339146      -0.0003372417380314       0.0001222922497242 0 0
H           4.4604434569812854      -9.6636325604096367      12.5892973092164073      -0.0002453523688414       0.0011515200332512       0.0015405176577995 0 0
C           4.8082937323913955      -9.3194722475583198      10.4971192063770307       0.0000786644602183      -0.0000794216362156       0.0000280839307323 0 0
H           4.8554552902512462      -8.2517893148502743      10.6240855012661068      -0.0017376396558074       0.0008662975240764      -0.0000719376945818 0 0
Si          3.3730530168223893       5.9631360290097772      11.2054768277454535       0.0002413826089080      -0.0000096820001168       0.0000742660720477 0 0
C           5.1607469619280470       5.9668517045777607      11.4120806428275792       0.0000322831753876       0.0000033430701330       0.0000206590581174 0 0
C           5.6213842921621229       5.2875163620949639      12.6137665876789971       0.0004255922024742      -0.0000040878090758      -0.0001054035888802 0 0
C           5.8363666355825625       3.9199858076973038      12.5696982125403789       0.0001116317209123      -0.0001526991066390      -0.0000317520251599 0 0
H           5.6494176015297661       3.2560005329562483      11.6887165377616835       0.0003274402316645       0.0011720159092559       0.0011410271900865 0 0
C           6.4127374334515528       3.2504865861824297      13.6698493513350403       0.0000175380062456       0.0002870522234576      -0.0001274120554375 0 0
H           6.5546778736805509       2.1850333893309011      13.5276080615323107      -0.0010070901165969      -0.0006198331263574      -0.0005963409356325 0 0
C           6.5796191134516784       3.9123701892078695      14.8600852335509916       0.0002680709982675      -0.0006220069110929      -0.0001746290949217 0 0
H           7.0327539122521747       3.3890740286173244      15.7013621247010331       0.0003282405449863      -0.0003873228516533       0.0007543940184927 0 0
C           6.2199481541293231       5.2536756436128931      14.9652949724072926      -0.0001489455770610       0.0002481089392228       0.0002438731116893 0 0
H           6.3251814101028367       5.8285451539371547      15.8980478096327733      -0.0009853210931222      -0.0011921789288146      -0.0024014883451198 0 0
C           5.6677344725519294       5.9282930565230885      13.8908519898781186       0.0002751139407356       0.0000101705478760       0.0000824658271134 0 0
H           5.2168865722746611       6.9089098517419467      13.9989905428236057       0.0002013891624447      -0.0014562487949026      -0.0005034544363434 0 0
C           5.6513297473261712       6.7132252430800730      10.3606764234650175       0.0003231391002673      -0.0000767607917742       0.0000137364456768 0 0
C           6.8541844587397440       7.6090186818311905      10.4581655047667468       0.0000189675927609       0.0001361454170823      -0.0000010557464578 0 0
C           6.9136105018672049       8.8195427283993588       9.7585186935998056       0.0000132764845777       0.0001533158474671       0.0000117389570642 0 0
H           6.1509363814625839       9.0564793953728682       9.0174870037676627       0.0011720436486162      -0.0002825093073646       0.0015029052672378 0 0
C           7.9639818003027054       9.6976460944767346       9.9678119154192650       0.0004451354806552      -0.0000304636894395       0.0000998687794448 0 0
H           7.9016845531696349      10.6323314730221838       9.3928350207819324       0.0008043927022055       0.0002583474996156      -0.0000965504923321 0 0
C           9.0157537613034915       9.3448542444574176      10.7653688299792876      -0.0004019859114297       0.0002171356361269      -0.0001979868498289 0 0
H           9.8315524570110391       9.9778910660265563      10.8729061903248656       0.0015777245332701       0.0012648837492150       0.0009006583823428 0 0
C           8.9524125981815459       8.1465535219097607      11.4895544052673717       0.0003646290647057      -0.0002504018673590       0.0000165038453661 0 0
H           9.7094226066424572       7.8552026837460449      12.1210898185681959      -0.0003048035922160      -0.0004893244023012       0.0002922530202764 0 0
C           7.8770726748177413       7.2928944471933814      11.3719471931979115       0.0003127487318361      -0.0001327946689621      -0.0001136361325075 0 0
H           7.8509747395212930       6.3058999093841157      11.7579362043395399      -0.0003883347220979      -0.0009014566271613       0.0007894406908722 0 0
C           4.7132324018058851       6.7422935317399029       9.1820503343933222      -0.0000708889271991       0.0001053517187577      -0.0001007076263511 0 0
C           5.1399738411436502       7.2038276491013464       7.8801613784515521      -0.0003555657680039      -0.0001756730444564      -0.0000087723138811 0 0
C           6.4386042336992135       6.9520186475571304       7.4147741485593457       0.0002400397810828      -0.0000252130948042       0.0000728613591552 0 0
H           7.1297774288114457       6.3340140365720980       7.8886007059810570      -0.0010961621224222       0.0014706666799005      -0.0010380852470001 0 0
C           6.8187569135045907       7.4575753360711108       6.1795513622506455       0.0000271083361496      -0.0001683280656161      -0.0000852495140899 0 0
H           7.7925578427593605       7.1782964776255076       5.7696404894488600      -0.0005028587314774       0.0011211207946786       0.0002331052994631 0 0
C           5.9015993461693403       8.1681815349577889       5.3907998152780268      -0.0002693918391172      -0.0000178236043933      -0.0001106261174698 0 0
H           6.2901049217697240       8.4674284862203635       4.4049845039140214      -0.0000629988384218       0.0004671572039960       0.0010885040342724 0 0
C           4.6793180951361446       8.5301769477878029       5.8787861714717682      -0.0000532235083879      -0.0003199230020028       0.0000200991005795 0 0
H           3.9909107253167364       9.2603669160892039       5.2661085200997055      -0.0000555700910703       0.0003036278673491      -0.0002565279612687 0 0
C           4.3086317259512192       8.0044252930067206       7.1281866208662228       0.0002243663952237      -0.0003042596114462      -0.0000032417083366 0 0
H           3.3565177374991468       8.3233060346274694       7.5171271892471037      -0.0015571470739259       0.0011448259853840       0.0012540660136801 0 0
C           3.3895644622941137       6.4666758013142269       9.4829087557756608      -0.0002550329317067      -0.0002653764659206      -0.0000076256606627 0 0
C           2.1979919768718785       6.2846429889451523       8.6375936602981138       0.0001664249487479       0.0001013677608997       0.0002189929930610 0 0
C           2.3300794463054149       5.3794067687035731       7.6440546075924871       0.0000400027323889       0.0003200636041841      -0.0001073691801998 0 0
H           3.1641571067137000       4.7962555184814342       7.4517409477811904      -0.0014556345782640       0.0003773694507615       0.0006336384959803 0 0
C           1.2402671482633270       5.1994936306213653       6.8266277563527096      -0.0000463099539857       0.0002055593968670       0.0002164574568434 0 0
H           1.2038729004970543       4.4445413281508124       5.9682844995517481       0.0003959332671447      -0.0004431989179674      -0.0006639529644424 0 0
C           0.1198065687881676       5.8662697979545504       7.0490432132460610       0.0001032159769891      -0.0000280021893661      -0.0001902644259574 0 0
H          -0.7689323898002498       5.6982416242673759       6.3258082851474082      -0.0008341108127777       0.0004808844443817      -0.0004481361002113 0 0
C          -0.0391794715274572       6.7829340695770748       8.0703569340442805      -0.0000140070437063       0.0002569236603590       0.0003323750733074 0 0
H          -0.9942136738869368       7.2741770572860212       8.1777055496983841       0.0000424017163801       0.0006575237002505      -0.0001812200574086 0 0
C           1.0335555413529107       6.9975144514316687       8.8990036455956165      -0.0000530873716398      -0.0001261968573169       0.0000470565556702 0 0
H           0.9570120999484550       7.7117925636892890       9.6424546220089109      -0.0001590584475570       0.0008980597591948       0.0014055480078792 0 0
C           2.6305655194325674       7.2991773385626493      12.3360217405064105      -0.0002272461410350       0.0001765202260861      -0.0000768136961989 0 0
C           1.3893504627922300       7.0987402693254626      12.8627648648733874       0.0002485071103594      -0.0000127176213448      -0.0002742164798936 0 0
H           0.8547395771915859       6.2827598896105634      12.5260210427994600      -0.0007148159559489       0.0004709684388593      -0.0001008681677280 0 0
C           0.9317367502163814       7.9867650325341861      13.8325087153527804       0.0002236885301657       0.0001088231957848       0.0000103699146255 0 0
H          -0.0940852592121507       7.8575003950933162      14.1283681995584764       0.0000615834586472       0.0001636570179142      -0.0004427361768465 0 0
C           1.5869125880090762       9.2164868514011573      14.0518969368605067      -0.0001767843292659       0.0001997442859682      -0.0000197257891662 0 0
H           1.0532906507146662      10.0208438183140984      14.3958356702623540       0.0003355344868399      -0.0002423900035959      -0.0014468899054214 0 0
C           2.7944480188184073       9.4449767346897726      13.4210793281325902       0.0004576650182941       0.0000354714513087      -0.0000617065377346 0 0
H           3.2345958136141184      10.4025357063386412      13.3727866045453538      -0.0010758467744589      -0.0010460900737358      -0.0005142703927996 0 0
C           3.2894941230198715       8.4792104833200614      12.5691180833859555       0.0000447528012505       0.0002223684096302      -0.0001623093695636 0 0
H           4.1388569541206506       8.7338465908951033      11.9009613525888440      -0.0006347267645263       0.0001886055169327       0.0006582993422788 0 0
C           2.7404296247133844       4.2289737406649444      11.5732231818137983      -0.0003395514834180       0.0001176573750403      -0.0002305795790567 0 0
C           2.5759120334012473       3.3200385139377446      10.5800488605072207      -0.0000256337572984      -0.0000531851889433       0.0000944040034956 0 0
H           2.3867715278047874       3.5876975430660822       9.5112006638587268      -0.0011292872622013      -0.0003621919773977      -0.0001233202667129 0 0
C           2.6415890307686558       1.9516931763013317      10.9180437855181420      -0.0003105591565880       0.0001348050374092       0.0002083701083548 0 0
H           2.4906221324744462       1.0496956359991005      10.1562049805112498      -0.0008295800153770      -0.0011384710580696      -0.0006862543117722 0 0
C           2.6040209936539180       1.5876077587287314      12.2811800655017294      -0.0000513224952926      -0.0001549610775107      -0.0002364796055032 0 0
H           2.4872708246811306       0.4894740916591712      12.5015177018195676      -0.0002404043954524      -0.0004424131339465       0.0013213988327298 0 0
C           2.7398805931108163       2.5138950527915696      13.2650881822300057      -0.0001187111094486      -0.0000376610699457      -0.0000739629045973 0 0
H           2.8511612399363990       2.2275921923297552      14.2525665683296872       0.0004357497960410      -0.0000095532816964      -0.0004785660637747 0 0
C           2.7147275910273487       3.8475998026645568      12.9323208216325085       0.0003035412592489       0.0001725283634489      -0.0000572345588462 0 0
H           2.6812373793037994       4.5926281560190585      13.6618873362619215       0.0001617908151594      -0.0009311115859292      -0.0007317367544015 0 0
Si          8.4265061361840186       8.4138648725798753      -4.1703950864989556      -0.0000208142634558       0.0000709464786938      -0.0000977010612300 0 0
C           9.9769602544977154       7.5025884772368299      -4.7706477209534146       0.0000293032931157       0.0000739761357846       0.0002802964215466 0 0
C          11.1056733703096242       7.0958180550273209      -3.9915226988629264      -0.0001904389908230       0.0000032925544807       0.0000684114230956 0 0
C          11.0926951149662578       7.3113807552955459      -2.5604287907012142       0.0000990833915954       0.0002427928865014       0.0001876439066889 0 0
H          10.1024354908783085       7.5053164224472333      -2.1698461564615026      -0.0007811897286759       0.0002250774894051       0.0000569334358902 0 0
C          12.2513573684731281       7.2705548991186983      -1.8294066189652332      -0.0001992375870210       0.0002196242743668       0.0001461054315425 0 0
H          12.1380119637298574       7.5197398971741265      -0.8264772636530398       0.0004276040564473      -0.0004819362578581      -0.0003977954540747 0 0
C          13.5051723341427383       6.9333495834912213      -2.4171018218605989       0.0001096946789506      -0.0001006710741609      -0.0003720728754349 0 0
H          14.3731534181300038       6.8394744755159964      -1.8330220452598720      -0.0002641091780115      -0.0002412843929778       0.0001370905799779 0 0
C          13.5175621814617255       6.6096657700937227      -3.7646847201395417      -0.0000869741952912       0.0002118454337004       0.0000040532366063 0 0
H          14.4134205515707006       6.2740809395668862      -4.2167421398123484       0.0000860248452256       0.0007592990637919      -0.0005071072642885 0 0
C          12.3394604612625507       6.7278210436348891      -4.5189208104027063      -0.0000504902833826       0.0000619321903911      -0.0002577113646885 0 0
H          12.4269302932931254       6.6939601020114301      -5.5989670739985211      -0.0005157508245968      -0.0003077087368765       0.0016653878927194 0 0
C           9.6432419721267806       7.0424597973755967      -6.0361266437726169       0.0000639709491268      -0.0000935413981862      -0.0003401898302357 0 0
C          10.2599948169830082       5.7737908058471872      -6.6341464238375627      -0.0003057355200825       0.0003226225832020      -0.0001287635749559 0 0
C          10.6419022290894087       5.7574604897213959      -7.9297639429315376       0.0001014139786969      -0.0000736280618105       0.0000320214223134 0 0
H          10.2778974847931668       6.4477036036104396      -8.6267643465971702      -0.0001033314450058       0.0002464340121922       0.0000908410040783 0 0
C          11.1491849805349865       4.5961214072395311      -8.4917679538065087      -0.0000872051106115       0.0004584547926482      -0.0002081948004055 0 0
H          11.4295559851176947       4.6015156666401902      -9.5314868913140653      -0.0000296559390102      -0.0001934346193928       0.0013492747431378 0 0
C          11.2992795954529299       3.4685163536460011      -7.7362177788493325      -0.0001099109923047      -0.0000384680842709      -0.0000261738135412 0 0
H          11.5573988153989937       2.4943279363855035      -8.1780883625811001      -0.0003929963084587      -0.0003837730951947      -0.0009664801595380 0 0
C          10.8612148643113429       3.4762883279097165      -6.4130944513889725      -0.0000902870216654      -0.0003030412982919      -0.0004215409401725 0 0
H          10.8824638454035032       2.5607242250159565      -5.8180311655391597      -0.0011956484999038       0.0004811721237186       0.0003088545860608 0 0
C          10.2980254245892304       4.6054562382527955      -5.8644654951215749      -0.0000221287819388      -0.0003543889422344       0.0000803037654555 0 0
H           9.8190509524822680       4.5080099115765497      -4.9125386186321753      -0.0002463916997880       0.0008751978808665       0.0003370538774802 0 0
C           8.4560532636921177       7.6762661677648927      -6.6987944004051414      -0.0001875526191794       0.0001053322173609       0.0001175495266646 0 0
C           8.0666040770057155       7.4717076318874893      -8.1116598720099873      -0.0001460627420842      -0.0000801356427157      -0.0000230078988171 0 0
C           7.2946629974567418       6.3723187617918615      -8.6262855842219093       0.0001827301226730       0.0002445900112544       0.0002902435298508 0 0
H           6.9009466363835017       5.7171374156104910      -7.9386600801275602       0.0002643647587388      -0.0005457500317015      -0.0001544862237839 0 0
C           6.9601460066617173       6.3344911252484293      -9.9257348676330945       0.0001773918354654      -0.0001812327384771      -0.0000838613440330 0 0
H           6.1819902740693156       5.6572566192607212     -10.3324452368242401       0.0002911138252639      -0.0001933290342932      -0.0010756734298874 0 0
C           7.4881403634791104       7.2319172010934754     -10.8648546152821286       0.0003294647418273      -0.0003596893861864       0.0003793201849824 0 0
H           7.1225427231908363       7.2584500668759597     -11.9257860711644632       0.0006974968282876       0.0000661552351255      -0.0006783584390752 0 0
C           8.3805403468108413       8.2312017778207256     -10.3981483324770778       0.0001339715691543       0.0000611841042233       0.0001331778078724 0 0
H           8.8425498005413417       8.8320557877328216     -11.2173542590867701      -0.0004681087606912      -0.0002699153581461      -0.0002885205699693 0 0
C           8.5999129625216959       8.3693948724331335      -9.0881617300439856      -0.0001956146330846       0.0000584246954983       0.0002864921346953 0 0
H           9.1754725591793616       9.3015296681890689      -8.6823576721093687      -0.0008369508229686      -0.0009369981041375      -0.0007942752145626 0 0
C           7.6163915873988177       8.3965039599542575      -5.8474170898617901       0.0000094556249157      -0.0001624444411607       0.0001418445064837 0 0
C           6.3476491539646389       9.0778609527805791      -6.1068034280599051      -0.0000109130031930      -0.0000450539999580      -0.0000616623029799 0 0
C           5.3751361990598623       9.3290823837185375      -5.1157000763064060       0.0003353855148772       0.0000136964547054       0.0001444174018932 0 0
H           5.5234645756085454       8.9336869779964996      -4.1493917821305351       0.0004437150681728       0.0003933521857901       0.0008578900188659 0 0
C           4.1230408583265534       9.8721936776637182      -5.3910373449745013      -0.0000767150795759      -0.0001596594849520       0.0001119619690062 0 0
H           3.4308170122755608       9.8844669908297753      -4.5816151166322205      -0.0012814760664233      -0.0009443354011604       0.0013056713501980 0 0
C           3.8230220573523139      10.3083568891529733      -6.5959614342873056       0.0000870332900005       0.0000494106949782       0.0001600088970271 0 0
H           2.7765975362187278      10.6444925555221843      -6.7931543861528159       0.0003649269772108       0.0015831035932646       0.0008293923858469 0 0
C           4.7469582361605704      10.1813615022086648      -7.6039431304894336       0.0001792749793386       0.0000212199516226       0.0000863146318126 0 0
H           4.4817342917994996      10.5352578949463105      -8.6484150901242032       0.0002394133331648       0.0000749438740175      -0.0001821533649824 0 0
C           5.9767973172929523       9.5332734481707320      -7.3509769269137166       0.0000797189929508       0.0002494977624089       0.0001586759692061 0 0
H           6.6587131785821434       9.4958944580321045      -8.1916048310353897       0.0007279869442168       0.0002594965757032      -0.0010845784221882 0 0
C           8.8890897155438751      10.1460170085107659      -3.6215358997021263       0.0001328614715487       0.0001175830208457      -0.0002764556201194 0 0
C           8.0450300789393960      11.1318830619483684      -3.1792414747746736       0.0001563786773715       0.0001150509300666      -0.0001638133047231 0 0
H           6.9613236845649924      10.9361161973893104      -3.0931631941239397      -0.0011162624152357      -0.0008854743482722      -0.0002872629628197 0 0
C           8.5314002074906057      12.4206653573083070      -2.9574386467377685       0.0002362617056581       0.0000890407946836       0.0002035041425623 0 0
H           7.7994280522813364      13.2104179740562717      -2.5609469531401472       0.0000799865319075      -0.0003002250397531       0.0002729526647870 0 0
C           9.8473334204476419      12.7058471576330678      -3.1346895229405174       0.0001728132277431      -0.0001046413612102       0.0001594746875099 0 0
H          10.1737581891954800      13.7132152535770864      -2.9786684432617387       0.0009738973574390       0.0012439523917598      -0.0003867477375433 0 0
C          10.6992338933636972      11.7733925843082137      -3.6146615015473169       0.0003342793564062      -0.0003874546786156       0.0003617280103305 0 0
H          11.7547416308991153      12.0569644993520324      -3.9544383596129609      -0.0000342125652920       0.0001537992411947       0.0000879039103801 0 0
C          10.1702164589208053      10.4331827285554954      -3.9797717948402003       0.0001583059631009       0.0002023340829090       0.0001890554445299 0 0
H          10.7782692946846890       9.9425567856464134      -4.7134818341559148       0.0002470495789776       0.0000471932567013      -0.0002076899887141 0 0
C           7.7823012003643344       7.4743660207715523      -2.6670021643395514      -0.0001938429153570      -0.0001362430455283       0.0000349093560287 0 0
C           7.7106085571969656       6.0983804226964526      -2.7580263854689275       0.0001167588714391       0.0000695927533995       0.0000504716806908 0 0
H           7.6614896561379275       5.6287881707824159      -3.6742256433402614       0.0002591940286431      -0.0004200644009114      -0.0012782963418073 0 0
C           7.8147196982669858       5.3487115187763434      -1.6149271293246719       0.0002515194443078      -0.0001105015301935       0.0001964151201254 0 0
H           7.7280236315305331       4.2318463569374813      -1.6250989417296771      -0.0003665327940748      -0.0001461671119651      -0.0003495274179206 0 0
C           7.8842535169509285       5.9725133935684829      -0.3912238861183182      -0.0000135777630906      -0.0001262424616974      -0.0004235974037149 0 0
H           7.7167390670757809       5.3587411460222656       0.5066630604238931      -0.0005499480139559       0.0015096119675766       0.0003966344104766 0 0
C           7.9358303565321462       7.3366521788196799      -0.2838010790073023       0.0001527115543820       0.0000941744760367       0.0000629016379675 0 0
H           7.9625370627996812       7.8214349085679142       0.7102500506460162       0.0000737962261355       0.0012510209058337       0.0016740298884698 0 0
C           7.7871430493846407       8.1158710810379393      -1.4381483577922449      -0.0001047198923672       0.0003302933064954      -0.0001495665187177 0 0
H           7.6207813850866186       9.1600555781827815      -1.4183992283373787       0.0005459120961787       0.0003291610685773      -0.0003553315268584 0 0
Si          8.9498290341832760       9.9770848674516301       3.0664433886666718       0.0002050085331946      -0.0001141975539922       0.0000751111763699 0 0
C           7.1218291305557626      10.2938587313261873       2.8297524444622306       0.0003565176790650       0.0000649475108115      -0.0001230718215674 0 0
C           6.4129366455674468      10.0935577824731961       1.5155434517356685       0.0000249064073503      -0.0002933794164170       0.0001599570441529 0 0
C           6.3828522476500886      11.1800425425317069       0.6803080569085230       0.0000870154884183      -0.0000163441494257      -0.0001317745283690 0 0
H           6.8641401420202754      12.1226096864066086       0.9215959533066068      -0.0007956548050037      -0.0003891417084531       0.0005521641417546 0 0
C           5.8495116185445388      11.0382098069178021      -0.5710693676942638       0.0003082210796629       0.0000774515470543      -0.0001040351077909 0 0
H           5.7634837628690274      11.9400585728459667      -1.2561117763222647       0.0008327944878571      -0.0010980691386081       0.0011393793381069 0 0
C           5.3181155048625044       9.8709627824925548      -0.9987152850321591       0.0001977702812830       0.0000592329349715      -0.0004456096148376 0 0
H           4.8992245559804601       9.7997721995129172      -2.0135204952591526       0.0003964380738190      -0.0003240744958135       0.0010190956022044 0 0
C           5.2997707761127861       8.8029913263628057      -0.1461437470327408       0.0001771464046254      -0.0004392077657080       0.0005471744403352 0 0
H           4.8557960868490779       7.9399280903337859      -0.5673578863183053      -0.0005668839135578       0.0008374639596009       0.0002038611574957 0 0
C           5.8605678776192454       8.9175016011097750       1.1225212960171158       0.0000682701245627      -0.0000596327669285      -0.0000563954547829 0 0
H           5.8933582314173787       8.0865737126350812       1.7784327915497748      -0.0009857611507489       0.0000805588327491      -0.0002424959619415 0 0
C           6.8222217397630622      11.1529747445515657       3.8410252094474870       0.0002394941099648      -0.0003040653719946       0.0000105441805628 0 0
C           5.7775482552535333      12.1481117936977796       3.6776454453762284       0.0000631301704692       0.0003374425270115       0.0000239747551465 0 0
C           4.4754172389321161      11.8926255159246903       3.1910548025696017       0.0000531211057645       0.0002581501476837       0.0000054301207654 0 0
H           4.3616574063046203      10.8438888791698833       2.8738432189291583      -0.0006890974185341      -0.0002752491036744       0.0009760081835492 0 0
C           3.5712435711195711      12.8734342752841453       3.0216388584437581       0.0001793778186686       0.0002474167649768      -0.0000149401732385 0 0
H           2.6448269235779609      12.6714937767816522       2.5518170089905303       0.0010871597537131       0.0005774957384315       0.0004013288343746 0 0
C           3.8787604293374183      14.1649075415411581       3.3184047948847950      -0.0001109004035111      -0.0002127541725863       0.0000781434448333 0 0
H           3.2327080938566723      14.9731205713580078       2.9937896791248786      -0.0002602272971519       0.0017545446123148       0.0012778489929502 0 0
C           5.1121402432013303      14.4546903038508958       3.9041649298492480       0.0002920121770549       0.0005899993401004      -0.0002075233547385 0 0
H           5.3687042368610012      15.5511928872924337       4.0295699927602406      -0.0003042499409932      -0.0001379670195409      -0.0007127575650031 0 0
C           6.0586727022710800      13.4717621765382649       4.0819481735696632      -0.0001531096006853       0.0001313591693767       0.0000199734857801 0 0
H           6.9877079993071476      13.6796797835954198       4.3908367618176385      -0.0007755826530313      -0.0007748903381533      -0.0002280225835609 0 0
C           7.6861500013842612      11.0533139241945442       5.0129396652457991       0.0001460739875198      -0.0000672890438122      -0.0000983326352816 0 0
C           7.1734561623577759      11.5916658124182970       6.3343918301443818      -0.0000079652926596      -0.0000766523104481       0.0001065759159085 0 0
C           7.9609570612770204      12.2005489181097904       7.3301652082987490      -0.0000169038140256       0.0000040873736921       0.0001963013435180 0 0
H           8.9370981059234769      12.5923633188033044       6.9028598641060039       0.0008405784484514      -0.0004716829028266      -0.0002343096861760 0 0
C           7.4513798479229347      12.5874239805008354       8.5408025047471554      -0.0000872009183355       0.0002463287980336       0.0000885877002045 0 0
H           8.1053621539079064      13.1660279911877165       9.1391803462879970       0.0003735291760657      -0.0002414165129657      -0.0002715189499497 0 0
C           6.1465271331616309      12.2867570917307578       8.8876842384107828      -0.0001212091118074      -0.0003024720596437      -0.0000600477241772 0 0
H           5.7537779613665743      12.6596899819023623       9.7670445749561114      -0.0002023325531107      -0.0003496199634012      -0.0007564350648454 0 0
C           5.3670922335489699      11.5892624415099021       7.9712823716550538       0.0004935554564081       0.0000146430228472      -0.0002864057587793 0 0
H           4.3746953290208497      11.3314159041013216       8.1661258899011440      -0.0005235459309028      -0.0007997148277759      -0.0003936366439900 0 0
C           5.8275897519309554      11.3406094625071905       6.7256825712059838      -0.0000777635770581       0.0001122654744961       0.0002379776391050 0 0
H           5.2393390064132470      10.9900157813855195       5.9699384944455209       0.0012996550362519      -0.0002550793210614      -0.0004212958056301 0 0
C           8.9303756958739520      10.4647348343271798       4.8536986250499297       0.0001283973523615       0.0005116455800856      -0.0000333845846491 0 0
C           9.8019166723805444       9.8543438118069471       5.8347197003457465       0.0002751442007281      -0.0000717981926702      -0.0000967413148988 0 0
C          11.0523802284556130       9.3956439087106567       5.4145937868534322       0.0002437957396391       0.0003740402512499       0.0001406236442958 0 0
H          11.3015993957791530       9.4808054689950279       4.3458730092918794       0.0002524963692870       0.0006549383387140       0.0013554751765280 0 0
C          11.9004634080527154       8.6613820189823443       6.2751004925349898      -0.0000459631523389       0.0002838659953719      -0.0000920190861298 0 0
H          12.8180032619846234       8.3221289467942405       5.8178295263291773      -0.0010749925949611       0.0005688259657919       0.0007258244432772 0 0
C          11.4537139852217980       8.2922375658296197       7.5095072111765555      -0.0002268925584950       0.0002487138631026       0.0003300065116240 0 0
H          11.9790086746158995       7.5895085637608766       8.0214171946235329       0.0011994664665760      -0.0006351115031455       0.0000302104836860 0 0
C          10.2327655946251355       8.6586347198084539       7.9831376748978657       0.0001723872049602      -0.0000436303225660      -0.0001531632185336 0 0
H           9.7822023410063306       8.2697592149723036       8.8369422981281804      -0.0000919213342616       0.0005501387213579      -0.0016155446413698 0 0
C           9.4348283955804249       9.5163664626694899       7.1268570547895420      -0.0001173914005901      -0.0000222172880359       0.0002266994179588 0 0
H           8.3687049777926372       9.6251827661545022       7.4612961186737063       0.0010864801857912       0.0008189786613209      -0.0006066556064664 0 0
C           9.4660745547519127       8.1787833134874965       2.7425833155679720       0.0001966742576495      -0.0001787602428621      -0.0002152907580255 0 0
C          10.7803987410748494       7.8363303752914222       2.4861634570273554      -0.0000845486245883       0.0002163194230039       0.0000175096161540 0 0
H          11.4373440356812104       8.5805483612083897       2.3349000388253263       0.0001693460515466      -0.0005379065986112       0.0010133820466639 0 0
C          11.2246103137997704       6.5132818772971364       2.5187963618099745       0.0001145754392055      -0.0001598668412070       0.0000628465067203 0 0
H          12.2537387170753220       6.2765200395741081       2.4134374344704570      -0.0017070845742794       0.0000302812375987       0.0001354610277704 0 0
C          10.2962114736588184       5.5443105522839877       2.7239971056433356      -0.0001197641454959       0.0000199479256508       0.0000310466403535 0 0
H          10.6346490164147500       4.4508080841956232       2.7260314942390780      -0.0002555997583267       0.0012852659912357       0.0005345978459134 0 0
C           8.9577888306453080       5.8536697693329804       2.8371640761688264       0.0000577490567746      -0.0003188552494729      -0.0001370127875389 0 0
H           8.2249003945965722       5.0617439608655612       2.9640674920143080       0.0000314328060420       0.0002830186402367       0.0005877035176354 0 0
C           8.5415267902690264       7.1704619649674886       2.8971683691561370      -0.0003661198485984       0.0000611401759830      -0.0001789083472336 0 0
H           7.5499438101464413       7.4536717746636638       3.0547005253120854       0.0023334891141199      -0.0005936197923945       0.0009313950310651 0 0
C           9.7824471150418013      11.1221271194058389       1.9272032382171054      -0.0000063201520728       0.0000644439145706      -0.0000292986845255 0 0
C           9.9025383092382988      12.4815684888203293       2.2101670025549889       0.0001186924370920      -0.0002849661330546       0.0001856977097504 0 0
H           9.4744472458586309      12.9154635274408438       3.1334634440225786       0.0008194611012836      -0.0002055015843726      -0.0004832252225569 0 0
C          10.4914080242328680      13.3066507583238263       1.2801244515400141       0.0002828137904894       0.0000032494807597       0.0001401281531256 0 0
H          10.5933028039640149      14.3443334382505707       1.3875361594464304      -0.0012418698624379      -0.0004262185720124      -0.0000834542275199 0 0
C          10.7769543893010002      12.7973951556175027       0.0098775716199495      -0.0000624012612375      -0.0000879040225699       0.0000476536281057 0 0
H          10.8893896461089188      13.5013262637366314      -0.7862021809546640      -0.0009274540682981       0.0007533793371156      -0.0003543892737007 0 0
C          10.6270894900145745      11.4649089128171369      -0.2794652945874279      -0.0001946956312702       0.0003094931323888       0.0003088226207604 0 0
H          10.7660960162786932      11.0637144088179511      -1.2926215786939357      -0.0003741779211064       0.0005080667242697      -0.0002221946243536 0 0
C           9.9990791844721389      10.5983831053802771       0.7027423486082297       0.0000242333287991       0.0000446865991333       0.0000937682079029 0 0
H           9.5759529481651313       9.6296911273086270       0.3583613922797628      -0.0009741869794024       0.0002433089238113      -0.0000800964968946 0 0
Si         -9.8788214574484030      -5.5820916864083552       7.8485977830088176       0.0000856673559167      -0.0000985129956310       0.0000229580256106 0 0
C          -8.9663883726722755      -7.0118551134191582       7.1457702554049494       0.0001164274395355       0.0001136774539914      -0.0000873716913925 0 0
C          -8.0313917226234306      -7.6597810042153549       7.9533070421714012       0.0000824718413741      -0.0000624953173685       0.0002069173234306 0 0
C          -7.4063881374842673      -6.9796534815196800       9.0186425546874371      -0.0001975447967803       0.0003646705528937       0.0001479646505384 0 0
H          -7.5386246255364195      -5.9183804707360226       8.9696039087303632      -0.0001499892150403       0.0001071421229844       0.0003374295642067 0 0
C          -6.5819174039963828      -7.6248472143387351       9.9212118438131913      -0.0000036035377291      -0.0002528492081350       0.0000233621123758 0 0
H          -6.1273155437469322      -7.0166171158600168      10.7020483075352253       0.0008765098389220       0.0003283659057042       0.0017218541108775 0 0
C          -6.3322316332940431      -8.9722493298473847       9.8235977467316342      -0.0000588196475265       0.0000324743445173      -0.0000468824435309 0 0
H          -5.6288506979431912      -9.3985573619907274      10.4039926602039330       0.0002181934956096      -0.0003963135559559       0.0001286399747599 0 0
C          -7.0335853361269196      -9.7144663592333345       8.8430239213747193       0.0000697929174479       0.0000457638563551      -0.0002089900387149 0 0
H          -6.7603526124900375     -10.7682326022891122       8.6698142829564055       0.0010771598843114      -0.0002298103697697       0.0003263441930664 0 0
C          -7.8259431454863311      -9.0637506378808741       7.9060391411759454       0.0001406685493300       0.0003486917206087       0.0004056916552674 0 0
H          -8.2647702190261096      -9.5922615750296920       6.9670314282809294      -0.0001918980093666      -0.0012403889417974      -0.0013565040855437 0 0
C          -9.8209017870412261      -7.5744609835583159       6.2102478264468077      -0.0001406194863147      -0.0002324399862986       0.0001627154447101 0 0
C          -9.5876002234584057      -8.8491727267443281       5.4347144619550320       0.0000592829755961       0.0001531772403592       0.0002629594524233 0 0
C          -8.4571246254110282      -8.8866752811942433       4.6423368489251819       0.0003482032994833      -0.0000323557416354      -0.0000093658424071 0 0
H          -7.9011084664007312      -8.0060327521031400       4.3613932469071814       0.0004485218325047       0.0005487906953126       0.0006290784659327 0 0
C          -8.0461859251397705     -10.0814888355840981       4.0964011828318068      -0.0001584588480147      -0.0000326211552752       0.0000382209554610 0 0
H          -7.1379967854837654     -10.2068575566077673       3.5408380507991994       0.0009401052054300      -0.0002023379864998       0.0001964102549169 0 0
C          -8.8319956340800250     -11.1772683995163415       4.3141167999464249       0.0000278837759826      -0.0000625482741788      -0.0001984727383441 0 0
H          -8.6049013966299892     -12.1141837231919229       3.7516516443910595       0.0002549932102846       0.0001725454737186      -0.0005301318582641 0 0
C         -10.0398528995727023     -11.1545314323944922       5.0471209549359024       0.0001817358083373      -0.0000057781577430      -0.0002596912135342 0 0
H         -10.6003810011523676     -11.9768498425679741       5.0503580872152787       0.0000679974929518       0.0007311681134282      -0.0006060902157936 0 0
C         -10.3886355766731437      -9.9543779327553903       5.6209198563240692      -0.0000641201110944       0.0000539762808247       0.0000953148078664 0 0
H         -11.2308709370820861      -9.9973164745359728       6.2430965426869465       0.0006885873477496       0.0001859267993513       0.0003066815893122 0 0
C         -10.9794642182966928      -6.7245864071521195       5.7574502405346477      -0.0000607659968651       0.0001526613761531      -0.0000107496065750 0 0
C         -11.6636259368752757      -7.0127103191184430       4.4880146753799828       0.0000021907826857       0.0001856575702488       0.0001549852338604 0 0
C         -13.0358383500354336      -7.2814951647607682       4.4267665451439244       0.0002223619317982      -0.0000153059210962      -0.0000312327256990 0 0
H         -13.6895307300261795      -7.2294001008810218       5.2559407626261612       0.0001448408289268       0.0000792579673417      -0.0002210029094685 0 0
C         -13.5661898100617133      -7.6892868654676105       3.2430558277450841       0.0002918714339788      -0.0000415592028875       0.0003704052775578 0 0
H         -14.6850264221005240      -7.8642819368312793       3.1008729082394946      -0.0002037378767459       0.0002097790238775      -0.0004518174412797 0 0
C         -12.8436525710183691      -7.7576813961696880       2.1050426989403834       0.0002384682621618      -0.0002424616730154       0.0003987194155227 0 0
H         -13.2533003429672771      -7.9577388685297210       1.1363340014539030      -0.0003709822192157      -0.0006166533184243       0.0001986545166020 0 0
C         -11.4636989440871684      -7.4563342811254945       2.1790479313780011      -0.0001398330044249       0.0001259983878998      -0.0003253152304257 0 0
H         -11.0236590451610557      -7.5402415531967826       1.2122905088456213      -0.0005743566397859       0.0001611299403339       0.0004652385095008 0 0
C         -10.8862660182158297      -7.1052146660759217       3.3035233799574266       0.0000678911015408       0.0003051358113475       0.0000503060017673 0 0
H          -9.8744559776558116      -6.9359770103069991       3.2855715859450330       0.0012382643004528      -0.0005285506607159      -0.0011431377952237 0 0
C         -11.2813842872572838      -5.6794233320522025       6.5880923788748422       0.0001710962261677      -0.0001930303713106       0.0000249892237318 0 0
C         -12.2614307461263135      -4.5688412002504259       6.4232592985692447      -0.0000166041964504       0.0000143791656812       0.0000566868460252 0 0
C         -12.8907758666077275      -4.0699183637678189       7.5767043682395245       0.0001548716673591       0.0000523723929354      -0.0000469936785647 0 0
H         -12.7182094478128320      -4.5654909926882361       8.4622586686983041       0.0004597579782828      -0.0003047654410734       0.0010282382345646 0 0
C         -13.8191834410447782      -3.0838665792140874       7.4928781635110555      -0.0002406547214679       0.0000097261973186       0.0002207132887133 0 0
H         -14.3660831276000742      -2.7819412340191052       8.3780620974013704      -0.0003881630121686      -0.0008686703561045      -0.0005409644188671 0 0
C         -14.3434457129428594      -2.6660951379927824       6.2709228068630676      -0.0000371127553923       0.0003819909264647      -0.0000644327663089 0 0
H         -15.0466056949839562      -1.9810663788741407       6.2560309545321307       0.0000301190333896       0.0001066149997008       0.0002518058909417 0 0
C         -13.7495784883508207      -3.2000065995870624       5.1340034042190661       0.0000514163857183       0.0001286132275589      -0.0002832747972756 0 0
H         -14.1788949980293815      -2.9531239613108573       4.1437343879060959      -0.0001648734088694       0.0003217459862434       0.0011016269116870 0 0
C         -12.7887630250868529      -4.1578887529454862       5.1913116041511280       0.0000909258009621       0.0001437715851916      -0.0000605228680221 0 0
H         -12.4600027669655553      -4.6496653894584261       4.2900566885027507      -0.0004368209554207       0.0014440626416195       0.0009428681310121 0 0
C          -8.7321560216269720      -4.0835165318029913       7.9204976441762716       0.0001096239221158       0.0003052981212346      -0.0000247293776135 0 0
C          -9.3725058291546528      -2.9522795752195394       8.4870942407174592       0.0000859568950468      -0.0000526885304429       0.0003342312531724 0 0
H         -10.4304854190577014      -3.1513661161877033       8.7827780648894844       0.0011106459581412       0.0007229892010075      -0.0002554563094565 0 0
C          -8.7414581881619036      -1.7409602529412094       8.6042258779310838       0.0001103730749043      -0.0000247549183187       0.0000395787007081 0 0
H          -9.2761666450892761      -0.9591465600201384       9.0567988699690343       0.0004924550695622      -0.0004440750497226      -0.0009731177292571 0 0
C          -7.4893641348469702      -1.5871098333746847       8.0267800487556560      -0.0001074110838545       0.0000236274041506      -0.0001597732812669 0 0
H          -7.1413065911516513      -0.6154086742441628       7.8129884504533313       0.0005422628307733       0.0012450929097852       0.0003945907665574 0 0
C          -6.8647707933900932      -2.6956034230035453       7.5104607936596439      -0.0001109475128309       0.0002667888738828      -0.0001444980772313 0 0
H          -5.9064263026716946      -2.6794931627269443       7.0210054581419730       0.0005840781857988      -0.0011551153365616       0.0003915402714289 0 0
C          -7.4206398525157669      -3.9374124748925947       7.5034544072998983      -0.0001152815235936       0.0001878708318582      -0.0000283347577953 0 0
H          -6.9715649138491242      -4.6597149741124939       6.8844859558073779       0.0006888680382141      -0.0013901155570938      -0.0004898609670069 0 0
C         -10.4008059957808019      -6.1350304642759088       9.5810641978377973      -0.0002129218240567      -0.0001976225936394       0.0000516623094534 0 0
C         -10.3775868322986486      -7.4775458899348886       9.8519854906119626       0.0000752531779314      -0.0000978586565279       0.0000341799149151 0 0
H         -10.2436704960525926      -8.1379647927619594       8.9720617458009748       0.0003592231225718      -0.0004399084458942      -0.0007889618707068 0 0
C         -10.1520958878829433      -7.9339880670513265      11.1274461563317697       0.0001686338740391      -0.0001470017515188       0.0000483119112370 0 0
H          -9.9437274062892200      -9.0401741880404014      11.2614310237875035       0.0003141281815373      -0.0000211545925145       0.0004154632885465 0 0
C         -10.0565114915549394      -7.0334887918185842      12.1473420847987637       0.0000468702407479      -0.0004605024596519       0.0000605898551730 0 0
H          -9.7386028268574325      -7.4010249850805572      13.2022320737579193       0.0010473936033762       0.0001530944479551       0.0007497941003096 0 0
C         -10.3172070019798934      -5.6961964834181886      11.9560638776175363      -0.0000606142350423       0.0002136773232466      -0.0000849149339176 0 0
H         -10.3250529350222671      -5.0189054159657811      12.7438071976114582       0.0000201565139826      -0.0000051561558670      -0.0010182481352140 0 0
C         -10.4506952753041880      -5.2410654459108343      10.6637776102570108      -0.0003180713059874      -0.0000742963192070       0.0000944246778274 0 0
H         -10.5849521082934555      -4.2537092982408620      10.4006144722192175      -0.0002000875215214       0.0016370259266189      -0.0012518954954775 0 0
Si         -3.1015368612390812     -12.9345832247570094       4.4202297170286364      -0.0000733618540219       0.0001987180470235      -0.0000489495314824 0 0
C          -1.3765022806728995     -13.5209035898055969       4.3132226075358266       0.0000319305169241       0.0000708803443317      -0.0001995657662349 0 0
C          -0.4673721077537347     -13.4417842243880585       5.4031656959372674      -0.0000752344250088      -0.0000975262640139      -0.0000974555885255 0 0
C           0.7488133670939824     -14.1101316375663206       5.4779126622536376       0.0002273293555328      -0.0001336364033689       0.0001832160976647 0 0
H           0.9250753954141191     -14.9041061272071929       4.7079208313679368       0.0004026378281030       0.0015833595397745       0.0013605103975596 0 0
C           1.7063410576217122     -13.7460359010227950       6.4630901300656971      -0.0002401421801547      -0.0000513797999180       0.0000634403333428 0 0
H           2.6870043324101300     -14.1500848235350745       6.3415997353552944       0.0010948132180504      -0.0009928325668005       0.0005352763247922 0 0
C           1.3758159328973458     -12.7301251181913120       7.3733094197036131       0.0000118598574311       0.0000347753847230       0.0000545415127635 0 0
H           2.0786945003031310     -12.3924989240372998       8.1004739136589201      -0.0005692339730087      -0.0005424772820960      -0.0001466107138273 0 0
C           0.1098159873314552     -12.2118643812022860       7.3594995772956784       0.0000746215935448       0.0002120535243466       0.0000665438158189 0 0
H          -0.2714230830541792     -11.6293712303744421       8.0670600620417172      -0.0008621040316531      -0.0005039501650334       0.0006390434041909 0 0
C          -0.8149077223205584     -12.5567944974603449       6.4256921661043842      -0.0003132241098694       0.0001475569154667      -0.0001615774054106 0 0
H          -1.8179547920280812     -12.1591808362424683       6.4570015027485370      -0.0006074837160290       0.0002382319592074       0.0001160592109603 0 0
C          -1.2659779148650012     -13.9382968362083606       2.9943122583391397      -0.0000813806116755      -0.0002092202067757       0.0002753759658378 0 0
C           0.0449180949563129     -14.1270486363511303       2.2640735846494335      -0.0002051318024394      -0.0001714230848782      -0.0000055351876897 0 0
C           0.2175258937309881     -15.1516831165815464       1.3448375340321839       0.0001192057785777      -0.0001501304363537       0.0002147774403279 0 0
H          -0.6370700388080945     -15.7329733505947846       1.0842039806437511      -0.0002860680879917      -0.0006946428864722       0.0001578808949344 0 0
C           1.3887778396070425     -15.2942391742882133       0.6604818284295145       0.0000290091553904       0.0002766493646569       0.0001364586566947 0 0
H           1.3686718159537212     -16.0612562280678475      -0.1252112952577243      -0.0011425571406767       0.0006292777220167      -0.0008523668717358 0 0
C           2.4165594278450642     -14.3670073082307734       0.7329169320643677       0.0001376388079745      -0.0001348270368661       0.0000466785213259 0 0
H           3.1859802686637981     -14.2724306485095127      -0.0122183506372199       0.0003323294494134      -0.0001006926948837      -0.0005554887145110 0 0
C           2.3011353671406480     -13.4183879918265205       1.7444065657260419      -0.0003482213164208       0.0001823335061003       0.0000031422947633 0 0
H           3.0540475136131784     -12.7012407412501371       1.9377682580956306      -0.0002583779241329       0.0007975440645406      -0.0006105842940711 0 0
C           1.0994625295332237     -13.2500029091556417       2.4056431285127400       0.0002170869194627       0.0001011915180765      -0.0000367524023659 0 0
H           0.9065070648188971     -12.3503000220720178       2.9388142931030945      -0.0014688780453590       0.0016106877437267       0.0004794471257416 0 0
C          -2.5284650986415556     -13.9401154585872202       2.1724136820842035      -0.0000535414943935       0.0000386230965409      -0.0000551432346731 0 0
C          -2.5069357852325602     -13.9370071138632721       0.6817447098064243       0.0000862596825826      -0.0001136947427482       0.0000948833490508 0 0
C          -2.7729951559372021     -15.0787639432002187      -0.0609781541103016       0.0001388150416471       0.0004803450837738       0.0000005584627990 0 0
H          -3.1365187701609001     -16.0304675627010411       0.4772651098304598      -0.0000510120962126      -0.0005563691368771       0.0002944075011984 0 0
C          -2.4718413672342159     -15.1343681643710113      -1.4000407676991671       0.0000127175548399       0.0002704349191766       0.0003168119516566 0 0
H          -2.7452520549795856     -15.9762908293265138      -2.1139204762900925       0.0004157362556363      -0.0004157986389891      -0.0005334502991441 0 0
C          -1.9594339479969205     -13.9854718546530332      -1.9912409722354620      -0.0000326227170116       0.0000055780399152       0.0000234507645375 0 0
H          -1.7983378943147501     -13.8633668277867130      -3.1526029124147485      -0.0001098856567788      -0.0009156740781745       0.0000306440168968 0 0
C          -1.6262136936296374     -12.8557618585098741      -1.2191052823283290      -0.0003136099224145       0.0000586157652494      -0.0001024219459404 0 0
H          -1.2753462689524975     -12.0026934831477270      -1.8129333405901962       0.0003706771305127       0.0010788234122440      -0.0004924799027212 0 0
C          -1.9230562760578076     -12.8056756503060747       0.0713961855611468      -0.0001797006057998      -0.0000621882966469       0.0001759192259775 0 0
H          -1.6285901045811215     -11.9519308269895213       0.5805320600005429       0.0007469257277870      -0.0004738351592909      -0.0004715582530224 0 0
C          -3.6733450158544745     -13.8157281898849931       2.8974066816891346       0.0002036176168735       0.0001396891692265       0.0001915228487034 0 0
C          -5.0150174963351839     -13.5507670896360644       2.3260751250650653       0.0001352026902636      -0.0000322781154200      -0.0001001189152936 0 0
C          -6.0978185991751808     -14.4597247430236138       2.4827511665612580       0.0005353325188223       0.0000961104058133       0.0000815722011072 0 0
H          -5.9556960143439968     -15.4813194334769868       2.6913563424681723      -0.0008193393122884       0.0007268464430917       0.0001572562061696 0 0
C          -7.3849564731397015     -14.0154913132323760       2.2678912014240074       0.0001707605771109      -0.0001320428664368       0.0000243185505138 0 0
H          -8.2560919746819170     -14.6095561817344421       2.4941284931062189       0.0001087480433206      -0.0002338181489406       0.0000214502814067 0 0
C          -7.6261412957921930     -12.7935812166271745       1.7035848696282037       0.0000545929098769      -0.0000347086939945      -0.0000895226925828 0 0
H          -8.6445043295254393     -12.4641690204821494       1.3990975953266986       0.0009857764822463      -0.0008140784378625       0.0005047276255859 0 0
C          -6.5980821869403421     -11.8927756648170799       1.6288650295797684       0.0001351494457885      -0.0000536215870640      -0.0004153005790570 0 0
H          -6.7979624948423325     -10.9128176488818198       1.2564050629446790      -0.0001966169681003      -0.0010149860903352      -0.0000476556556087 0 0
C          -5.2945627937302806     -12.2532917143065063       1.8806094748379418       0.0001882610111300       0.0000130298224678      -0.0002375226986829 0 0
H          -4.5086187666049664     -11.6138560994547095       1.6628859796023208      -0.0006734506199287      -0.0000135999558364       0.0008096367157273 0 0
C          -2.8978144181146805     -11.1180549450588781       4.0303595146366042       0.0001008541675956       0.0003127750988706      -0.0000165065798892 0 0
C          -3.9144561297398299     -10.2311061128687584       4.2728764916780717       0.0005816302611662       0.0000538600132638      -0.0000444580913495 0 0
H          -4.8097201123598250     -10.5770787558585635       4.6402661256891458      -0.0015124430995858      -0.0002151227285943       0.0007257179752153 0 0
C          -3.8598065578679459      -8.9240926698352876       3.7321295128282026       0.0003774382736358       0.0000273539772536      -0.0002495905095491 0 0
H          -4.6740833793533483      -8.2917522050960226       3.8014762776245630       0.0001851302933960      -0.0007061343449141      -0.0010066447598498 0 0
C          -2.8469905699766644      -8.5950412679711725       2.8564058091708198      -0.0000301231592055      -0.0002675898409667      -0.0002548209705916 0 0
H          -3.0171679150010755      -7.7190563297934531       2.2748266648088316      -0.0009518907615080      -0.0015346803809167      -0.0008324928214984 0 0
C          -1.7959636556246792      -9.4323770455522293       2.6186437570553340       0.0002572602584526      -0.0001350817268954      -0.0004258657431284 0 0
H          -1.0087480678767515      -9.1554218034506949       1.8788732232666050      -0.0019774490964277      -0.0012848361952419       0.0003030134446484 0 0
C          -1.8307120291654155     -10.7569633534448847       3.1547838350450372       0.0001622028829550       0.0000139361688348       0.0001644481256612 0 0
H          -1.0737599734948440     -11.4584162556511000       2.8846109671948690      -0.0012352589943563       0.0009359949288770      -0.0005056657953699 0 0
C          -4.2423169015512414     -13.3912386619186581       5.8677986452911108      -0.0003290745332889       0.0000065203272946       0.0001406330687688 0 0
C          -5.5818939033599309     -13.1481940245020770       5.6436990480477993      -0.0000174762269213       0.0001054841055194      -0.0000989419302915 0 0
H          -5.8029584769356841     -12.8205311959588606       4.6332878210962880      -0.0000065941741520      -0.0000391633816853       0.0008563265409602 0 0
C          -6.5109366703177951     -13.2458423440292901       6.6663470994281635      -0.0000910826913587       0.0002811533732235      -0.0000574575399427 0 0
H          -7.5068155762377442     -12.9494252826224034       6.4561332584620912       0.0020863336738453      -0.0004530960295151      -0.0001532362531104 0 0
C          -6.0775358980716820     -13.7548515389537478       7.8996155593384199      -0.0000819552775860       0.0002618553224485      -0.0000736132019085 0 0
H          -6.7871211127136215     -13.8675622894906816       8.7043958474479943      -0.0012029805168307       0.0001537718883170       0.0020109476366726 0 0
C          -4.7224648877851783     -13.9460789323497032       8.1530205016441197       0.0001278290808580      -0.0000611344128917      -0.0000693239201393 0 0
H          -4.3050372553373428     -14.2132031333589381       9.0992028377269474      -0.0000326847526129       0.0004306133272178      -0.0009648762396856 0 0
C          -3.7943414636699124     -13.7999514847239695       7.1157140038606448       0.0002940116844837      -0.0001264411773282      -0.0001620877575330 0 0
H          -2.7597141801814185     -13.9607570954409770       7.1950454748211010       0.0005341576218661      -0.0001595751560792      -0.0002016470698063 0 0
Si         -8.3065520736909200     -10.3817172469213492      -4.3793514573636925       0.0000042945240031      -0.0000289082702329      -0.0000166467041017 0 0
C         -10.0663208824892223      -9.8271098432017947      -4.5882022673381364      -0.0000814305382841       0.0001269303598751       0.0000779111414396 0 0
C         -10.5812994460198340      -9.3035280294058236      -5.8888780212959411      -0.0000838019217427      -0.0001935023857917      -0.0000916282129085 0 0
C         -10.4793145836294741      -9.9859903058446058      -7.0992200299920203      -0.0002162135297437       0.0002637343750900       0.0001735996725858 0 0
H         -10.2427955641106827     -11.1274140202989766      -7.1946469403998554      -0.0000431085086632       0.0005376708302167      -0.0002622669944964 0 0
C         -10.6993003816930727      -9.3126362171175110      -8.2416609674084089       0.0001696846570675      -0.0002824189485930      -0.0000290702340032 0 0
H         -10.6002961655983974      -9.8315625552791897      -9.3461530887840816       0.0004253551738481       0.0008963339003270       0.0007392046286336 0 0
C         -10.9913530772667052      -7.9682265130119552      -8.3008970058962390      -0.0001557128169902       0.0000403953733584       0.0001208962495838 0 0
H         -11.2256133963264038      -7.4540384375641917      -9.2672583953601801       0.0001648833403501       0.0000045734928902      -0.0011558351744536 0 0
C         -11.1293267355020618      -7.3173809420368503      -7.0937058640452149      -0.0001919085690478      -0.0001637804311898       0.0000128643017719 0 0
H         -11.4933607715683053      -6.2660632543773076      -7.2002626835813137       0.0000252604461104      -0.0000072916598338      -0.0008284004674251 0 0
C         -10.9626571627271368      -7.9848062458019449      -5.9173718870159719      -0.0000687194191055      -0.0001054462416638       0.0001354757017490 0 0
H         -11.1845409743386792      -7.4006108155563615      -4.9676026658409445      -0.0003100120915640      -0.0003236080203518       0.0004814392365013 0 0
C         -10.5565700067307571      -9.7050556950870277      -3.3637015733693625      -0.0001734600876864       0.0001900481486163       0.0001057888191782 0 0
C         -11.7339833331224401      -8.8863754097287995      -2.9694401493626068       0.0000516560137556      -0.0000018819605103       0.0000688718308626 0 0
C         -12.9575869960680539      -9.0069609511093347      -3.5715968665542293       0.0002649997202673       0.0000787601504740       0.0001396693881743 0 0
H         -13.1097144923648692      -9.8259952219836837      -4.3319696086474409       0.0005569620090000       0.0001833485232610       0.0003720888923587 0 0
C         -14.0037908615221802      -8.1862391046140104      -3.2916526706416827       0.0004776652330795       0.0000145336312994      -0.0001440912724906 0 0
H         -15.0567663885220657      -8.2743793013682279      -3.7180913031054752      -0.0004253891246606       0.0006369266792623       0.0003947639836057 0 0
C         -13.8617595888237890      -7.1711614725638100      -2.3765889735176007       0.0000545335596293      -0.0000899041141137      -0.0001125361345978 0 0
H         -14.6343351863771680      -6.5017136631711834      -2.1935356055955832      -0.0004005230696268       0.0003318073672104       0.0004733373183690 0 0
C         -12.6501773881730024      -7.0737190469336779      -1.6894384452958462       0.0002129280425793       0.0004574314096907       0.0001505068181656 0 0
H         -12.5888764054587909      -6.2958064636248885      -0.9775342210733670      -0.0002250814749235       0.0003383254644063       0.0001710007824543 0 0
C         -11.6428750818013551      -7.9315695924938954      -1.9255160196073937       0.0002035116566861       0.0002918470793839       0.0000360770295884 0 0
H         -10.6267347221738202      -7.7544014743502894      -1.3882212904789923       0.0006267116513536      -0.0001620644319130       0.0000617933194608 0 0
C          -9.8167195024051068     -10.4632838190873461      -2.3043332794904718       0.0003846310809929      -0.0002294160022765       0.0002470284565779 0 0
C         -10.3909912381982839     -10.6521052672049112      -0.9524874118222948      -0.0002390247615374       0.0001007358967445      -0.0000272630888485 0 0
C          -9.6846123228249148     -10.1943173181222306       0.1866384761794907       0.0001595606424130      -0.0001818587060791       0.0003804488409939 0 0
H          -8.7281362017471675      -9.8013479961038517      -0.0681564092601946       0.0008795050245556       0.0002890206616650      -0.0007421988552035 0 0
C         -10.2077112364428579     -10.2625390303028414       1.4421379204209539       0.0003003301177511       0.0000251241261159       0.0000852516884367 0 0
H          -9.6447417942432772      -9.7918277141706795       2.2548486637395921      -0.0000910079192741       0.0005189077108616       0.0000467775124296 0 0
C         -11.4040482483201018     -10.9365692230854616       1.6243237430459601      -0.0003822106175546      -0.0005130566517385      -0.0001581780819033 0 0
H         -11.8112851840255626     -11.1549247451222264       2.6251633867550539       0.0001072566396070       0.0006458656593220       0.0004081995402542 0 0
C         -12.0763476447841356     -11.4082533156295867       0.5071800848163986       0.0002186522311523       0.0000614549311246       0.0004195092370180 0 0
H         -13.0966738027548981     -11.9419817007415592       0.6941998067563409       0.0004181368311714      -0.0002149396490721      -0.0004339533531645 0 0
C         -11.6299756454665548     -11.2819474739366790      -0.7578774555967419       0.0000650701921453       0.0001936857961986      -0.0001045778015235 0 0
H         -12.1561076907615071     -11.4823826551029349      -1.6926675017121728       0.0011706252895540       0.0005256567665937       0.0018741589501772 0 0
C          -8.6184547092077732     -11.0433530467767120      -2.6834129127232753      -0.0002888289879391       0.0002597371355358       0.0002508207509192 0 0
C          -7.7491408371769550     -12.0279481435365980      -2.1366274145852775       0.0001713332006296      -0.0001986729489567      -0.0001236994161985 0 0
C          -6.3827724473919263     -12.0075159535489036      -2.4677186691258814      -0.0000021609261103       0.0000759710300733      -0.0000395685175025 0 0
H          -6.1367149382277075     -11.3348610754847883      -3.3456316882204655       0.0001880556498118      -0.0014007990246722       0.0015478444278809 0 0
C          -5.4374867293592661     -12.8478663427111890      -1.9449631093146447       0.0001845069437014       0.0001507731659408      -0.0003491246582905 0 0
H          -4.3952495441761092     -12.8366199229620470      -2.3434945647753249      -0.0016501436859017      -0.0006687941037695      -0.0001096539605882 0 0
C          -5.8576061624175555     -13.8363356747091899      -1.0961709727335591      -0.0002207975680591       0.0001331466825701       0.0000829377099224 0 0
H          -5.2091196304390444     -14.7437344045131518      -0.7975758151653987       0.0006526760001288      -0.0008885967376566       0.0003493737878997 0 0
C          -7.2236878975917307     -13.9365545744639885      -0.7622721481710957       0.0000604118076407      -0.0002031691417925      -0.0002185349094203 0 0
H          -7.5350859368001757     -14.8104092770845988      -0.2785960967805074      -0.0003385001283433      -0.0007598698381756       0.0003592182899313 0 0
C          -8.1108754904338678     -13.0852216719639625      -1.2746196448263833      -0.0001934690137274       0.0000528071891160      -0.0002522783810379 0 0
H          -9.0776094737154569     -13.3104162440623544      -1.2897557141427769       0.0014131093220411      -0.0000813273153876       0.0005384383436593 0 0
C          -7.7141512758899182     -11.5401628002159669      -5.6929182765828035      -0.0000466705051835       0.0002029290645185      -0.0000049941721589 0 0
C          -7.4712435796211292     -11.0912104511973606      -6.9580924119008323       0.0000602444002421      -0.0002866420660760       0.0001123561049191 0 0
H          -7.6487511773552317     -10.0732009644275387      -7.2007060118992881       0.0009700936484135      -0.0007132304713896      -0.0000406391044498 0 0
C          -6.8766603360803744     -11.9025480231552194      -7.9116875299895408      -0.0004680067628431      -0.0000966149686531       0.0002256928664634 0 0
H          -6.6993485826080192     -11.5936009051350695      -8.9701261558073160       0.0007502891762332       0.0002424626078471      -0.0011576079043817 0 0
C          -6.6814622158072172     -13.2635821047400100      -7.6093888939721390      -0.0002349102517079      -0.0000848248940136      -0.0000962109557709 0 0
H          -6.5450200843817834     -13.9773100164826616      -8.4229552415890474      -0.0004450256866459      -0.0007621162368018      -0.0000847513132595 0 0
C          -7.0849888803059029     -13.7022959891069682      -6.3421238646995688      -0.0001355665629070      -0.0000518952803394       0.0004767141664446 0 0
H          -6.9363403256730356     -14.8037505767262072      -6.1589542807498123      -0.0000919587076747      -0.0003530412744950       0.0000100135557684 0 0
C          -7.6314743979453166     -12.8841374693299056      -5.4337955100500306      -0.0000237010022254      -0.0001399556083312      -0.0000402269316843 0 0
H          -8.1109383983463736     -13.4234341505052281      -4.5619811052450068      -0.0009731379613895      -0.0009508167347019       0.0008905434729351 0 0
C          -7.2361620256733206      -8.8560225135113484      -4.1664984809437486       0.0000475757123599       0.0000895771245751       0.0001929956787890 0 0
C          -6.2920595434850517      -8.7371881276493770      -3.1677748774419476       0.0000667284395398      -0.0000552045757783      -0.0000144398012643 0 0
H          -5.9890131792019661      -9.6801583480820970      -2.5842706626435339       0.0010736225251675      -0.0013066520619032       0.0007879260801265 0 0
C          -5.5881781365094074      -7.5451446878393824      -2.9829159600126647       0.0002562022183170       0.0002907239712616      -0.0000651487671945 0 0
H          -4.8137406422737739      -7.6002700587112644      -2.2444355750303533       0.0010727567529775      -0.0007748075122819       0.0001451984792632 0 0
C          -5.8374309938563522      -6.5155050701865331      -3.8646342341591646      -0.0001065915562792       0.0001033972435273      -0.0003819256195091 0 0
H          -5.2914841862467616      -5.6317730668258603      -3.7883325854777139       0.0005090841748269       0.0000411642511625      -0.0007891392958748 0 0
C          -6.8594069502281707      -6.5693459577318842      -4.8150409325338694       0.0000772237798292      -0.0002943023829436       0.0002139954113760 0 0
H          -7.1825445194962221      -5.7135427651071860      -5.4668687054297873      -0.0002983343150853       0.0020353011890144      -0.0012831240788968 0 0
C          -7.5270860195448854      -7.7834385976063585      -4.9768763136488658      -0.0000822900970896       0.0001524607598397      -0.0001168983943234 0 0
H          -8.3177988324154377      -7.8814699676508280      -5.7378364154691912       0.0013197342031245      -0.0003046913937359       0.0011929711613648 0 0
Si         -1.1857859326390792      -1.9340867323508282      13.2692706761960668       0.0002828574510321       0.0002145716677240      -0.0000472279855933 0 0
C          -2.9879307280703289      -2.0573314896736021      13.0532389162345890       0.0001516605987353      -0.0000156045501761       0.0002131893928394 0 0
C          -3.6184769299404960      -3.4077453132313216      12.8217131697207591      -0.0001219852841919       0.0000668987256551      -0.0003785008746829 0 0
C          -4.9579764792870344      -3.6221517331686655      12.9660045516890179       0.0003426470467016       0.0001732792024939      -0.0000681849281650 0 0
H          -5.6053357453097448      -2.8822790624826236      13.0058315905520168       0.0003552842152202      -0.0011723798178303      -0.0003663565273733 0 0
C          -5.5106168783863136      -4.9233992922001626      12.9911929977401321       0.0001357477928189       0.0001002662773805      -0.0000259438314432 0 0
H          -6.5880879722581209      -5.0930388458202538      13.1481556056885722       0.0002839876793803      -0.0006544122573867      -0.0007934348073986 0 0
C          -4.7218838058611388      -5.9797756429673941      12.7494938595830547       0.0002280207340965      -0.0002725980292744       0.0002028596736645 0 0
H          -5.1489268972548823      -6.9990312001989663      12.6663037289819282       0.0006334796338601       0.0025517158321841       0.0010644910180277 0 0
C          -3.3463688199448112      -5.8302265281759631      12.5748746865500820      -0.0002314888399609      -0.0002308874346052      -0.0002163045640056 0 0
H          -2.7189464300879780      -6.7139766880824068      12.3461225757084616      -0.0009607611487800       0.0001627413726218       0.0001421188247795 0 0
C          -2.8039751265569772      -4.5255705549169658      12.5398464544426123      -0.0000014131193756       0.0002578982421322      -0.0000457223359602 0 0
H          -1.8463271444848228      -4.3746297147712552      12.2202183689771662       0.0002306929843922       0.0001902745473816       0.0009822340108696 0 0
C          -3.4932595977081102      -0.8390530300499001      13.3201200147955099       0.0001163333978523      -0.0000716830291295       0.0001206974007084 0 0
C          -4.9578940019639095      -0.4572663861033791      13.2110895256536924       0.0002118545644258       0.0001195613980180       0.0000150688826709 0 0
C          -5.8838626135234682      -0.7978475054084213      14.2163512955171960       0.0000001818962269       0.0002046098551990      -0.0001548566704825 0 0
H          -5.4734912922961101      -1.3644456538908800      15.0092366689488674      -0.0002715650760657       0.0009136024808933      -0.0006182646851307 0 0
C          -7.2247372737612947      -0.4859153253234638      14.1424345378584686      -0.0000161898675215      -0.0002257532211557      -0.0000350445507750 0 0
H          -7.8750441466079311      -0.6679502686039415      14.9826967936686835      -0.0001847773258306       0.0003046392378775      -0.0008144017081492 0 0
C          -7.7604662246585479       0.0347507308257235      12.9399348072228744       0.0000128304774337      -0.0000984074157762      -0.0002014739639991 0 0
H          -8.8762757083385857       0.1029711963107585      12.7892940297438731      -0.0007744500900699       0.0002297335207285      -0.0008568735925703 0 0
C          -6.8230701236873506       0.4081291044709636      11.9340556425517050       0.0000576980868215      -0.0000259817418722      -0.0004975593704958 0 0
H          -7.2263720012647870       0.7805341881281131      10.9437702049860111       0.0003208823950459      -0.0011601371660154       0.0017529923980898 0 0
C          -5.4987428092991211       0.1360685538880564      12.0692817549478590       0.0000608976254911       0.0000667241826497       0.0001235172325536 0 0
H          -4.8415286644382682       0.2335544378322122      11.2288271127268509      -0.0010387029723914      -0.0000609022226324       0.0015118577789008 0 0
C          -2.4820494221574778       0.1745089957516511      13.8981661728327399      -0.0000081061697134      -0.0002321825908000      -0.0002932214871363 0 0
C          -3.0906583347818097       1.3939247234698315      14.4896534011912408      -0.0001308094779435       0.0000068985661498      -0.0000886108382083 0 0
C          -3.1178178153331984       2.5996865443337027      13.8558048350865057      -0.0003183864790450       0.0000047296251513      -0.0000491932934043 0 0
H          -2.9427378786881406       2.6072194211050670      12.7943298206411153       0.0006712368237754      -0.0001844000954843      -0.0009150136229106 0 0
C          -3.6586501218805090       3.7112946448273094      14.4422169476082534      -0.0000587208847957       0.0000339252046580       0.0000639363031898 0 0
H          -3.7516235487612137       4.5804925474810156      13.8386245575932563       0.0001419690513063      -0.0013768168796156       0.0009059904584973 0 0
C          -4.1318660160625100       3.6409568422945071      15.7347322673655992       0.0003822120534486       0.0002984393032054      -0.0000378338019149 0 0
H          -4.7110940074540153       4.4111952056482249      16.1351989227926111       0.0008654931739328      -0.0005543561537663       0.0002752841295296 0 0
C          -4.1364969355362211       2.3970439643859853      16.4262186489063353      -0.0002692904867362      -0.0001569681205077      -0.0000593553182701 0 0
H          -4.6057006510180338       2.2350929376958040      17.3781881323115925      -0.0012062271571750      -0.0007336020738197       0.0008395681230428 0 0
C          -3.6702606910721465       1.3071612540133968      15.7534695649440888       0.0001867150734487      -0.0001233343168548       0.0000319665326385 0 0
H          -3.9084239189589161       0.1894076833435481      16.1070454123175963       0.0012201294548164      -0.0009943998478826      -0.0010985212194537 0 0
C          -1.2602469160011203      -0.3586542934743215      14.2496966526122719       0.0000654963185726      -0.0000337148523219       0.0001088761587236 0 0
C          -0.1695251075842635       0.1903661377354346      14.9539536315100623       0.0001514465572086      -0.0001498145021194      -0.0001812154023779 0 0
C          -0.2269995375724976       1.5128914419528892      15.4024378983545969      -0.0001378391206861       0.0000215695778157      -0.0002146687119235 0 0
H          -1.1037166524659188       2.0881760550750745      15.1499945857084093      -0.0005397017943730      -0.0002348979139044       0.0006699786716245 0 0
C           0.7702999387692735       2.1042948461388633      16.1728816776372781       0.0000905249429844       0.0001170845787856      -0.0001190287685907 0 0
H           0.6950712653616050       3.0991274111936247      16.4578453257447634       0.0003084484554996      -0.0014560187659340       0.0003301826757184 0 0
C           1.8638274320754658       1.3575737129094785      16.4864335536974274      -0.0000891949585115       0.0000057864912607       0.0000268640108433 0 0
H           2.6159744834359375       1.7498281038695365      17.0565455493356843       0.0004761268090767      -0.0001071568438873       0.0002127209542374 0 0
C           1.9124538523199195       0.0147686891583900      16.1788887038261002       0.0002227472140859       0.0000153917666949      -0.0002191170910927 0 0
H           2.7428605152933563      -0.5546612483774200      16.4344945108763909       0.0004498778528895      -0.0006498615509745       0.0005390568406346 0 0
C           0.9206089658054448      -0.5569867468133076      15.4179644849217681       0.0000332990332090      -0.0001813632723864       0.0001212542975740 0 0
H           0.9221045642869554      -1.5711761536969677      15.1454207473246978      -0.0012426469365335       0.0003408243387198       0.0004246740926267 0 0
C          -0.7275052645003129      -3.2690833229492835      14.5057053418456174      -0.0001412042970434      -0.0000588976400095      -0.0000641753619718 0 0
C           0.3639333717991849      -4.0736111756464295      14.3216086773290634      -0.0000540148583887      -0.0002899169511744      -0.0001538484763500 0 0
H           0.9096753857494793      -3.9526109107840335      13.4667182097472438      -0.0011414372874387      -0.0004674364934890      -0.0005793541950464 0 0
C           0.6234857264795821      -5.1885198289155436      15.1210396791852997      -0.0000429461494262       0.0000305549996081      -0.0001695145553400 0 0
H           1.4322472631724212      -5.8285155198879837      14.9220770015368895       0.0001036509960192      -0.0003995395596632      -0.0005013424349959 0 0
C          -0.3256246698746328      -5.5813484413988572      16.0135643816808724      -0.0002032652339525      -0.0000246318812562       0.0000924020815807 0 0
H          -0.2743456893646002      -6.5904492250112652      16.4692866313833193      -0.0006908261332171      -0.0007660047939133      -0.0003911482330383 0 0
C          -1.4375545143594504      -4.7763779634313703      16.2469096020940320       0.0000367085896103      -0.0000358603954627       0.0002003160530760 0 0
H          -2.3199056768571942      -5.1979302809221908      16.7395561425760455      -0.0001762436772913      -0.0000695589185867      -0.0006635866966718 0 0
C          -1.6660085504213975      -3.6546251928008426      15.4660310989508041       0.0000870535094750       0.0001215532404598       0.0002054246935809 0 0
H          -2.6389039530509977      -3.2087794648436483      15.4688790494518020       0.0002446827883185      -0.0001127734817119      -0.0000805868308456 0 0
C          -0.1315136169713133      -2.0595402784496044      11.7409613788343421      -0.0001146761163872       0.0000762610938501      -0.0002837506286485 0 0
C           1.1983858113109755      -1.7743131712628319      11.9980200044163556       0.0000298093822235       0.0001883992376837       0.0001757863208679 0 0
H           1.5664712391051454      -1.4416849504639797      13.0490407583912802       0.0002401914932818       0.0005587544867083       0.0008595089167289 0 0
C           2.1736589004742899      -1.8940760691432672      11.0592408401435467       0.0003702603943074      -0.0002063944890534      -0.0003411691440016 0 0
H           3.2380193732086098      -1.7320247057696885      11.2557583854922214       0.0004797924060680      -0.0005051504014228       0.0006636802831046 0 0
C           1.8160353162531271      -2.3813642428937656       9.8277625296551783      -0.0004311162860800      -0.0005176922653815      -0.0001018633666458 0 0
H           2.5485453354625376      -2.5778623422022862       9.0608236468932919       0.0008678726418309      -0.0005134012486129      -0.0011266086194359 0 0
C           0.4802149340292329      -2.6134092975388907       9.5017871739502269      -0.0000673039042978      -0.0001194819962273      -0.0001017392834387 0 0
H           0.2561349781035956      -2.9721688293038424       8.4566780837136424       0.0011488760629196      -0.0000670833737673       0.0022655912989031 0 0
C          -0.5063235220701390      -2.4590024545762228      10.5040366290674339       0.0000389174799949      -0.0001096181398791       0.0000061661056012 0 0
H          -1.4913984352104834      -2.8509491258277455      10.3452644244744612       0.0000496168729121      -0.0007339721295461      -0.0005479329072618 0 0
Si          1.6018482913713046      14.8459586963216026      -1.4417026612606960       0.0000755238793041      -0.0000547760158317      -0.0001543309127040 0 0
C           3.2672413839122689      14.3264157995219552      -2.1261028969691003       0.0000335987364789      -0.0000767169745193       0.0001031715964434 0 0
C           4.5318322294383409      14.4466590018298717      -1.4553856148622084       0.0002130663345759       0.0001119536758076      -0.0000165696094776 0 0
C           4.6010939607535519      14.2214030866301400      -0.0629671941914710       0.0001101583247683      -0.0000494216253563       0.0005391821562657 0 0
H           3.7422021635260907      13.8774271494954817       0.4622470201837904       0.0003158292536080       0.0001141404294459      -0.0007918526078041 0 0
C           5.8221669995483731      14.4078618475511000       0.6043478101234979      -0.0002266628954250      -0.0001636673534382      -0.0000421288057837 0 0
H           5.8308871113864553      14.1553564644717067       1.6263927926677919       0.0008019940408405      -0.0002053538800005       0.0007371761619488 0 0
C           6.9384116268012663      14.7791541235393762      -0.1368501896043398       0.0001394136091899       0.0002456771575487       0.0003642592670779 0 0
H           7.8966871331992987      14.8071560430935367       0.3364765138331510      -0.0009060350585948       0.0011253285692517       0.0007385048091201 0 0
C           6.8826143503970085      15.0905638060976059      -1.4665052569068280       0.0000757732407691      -0.0000803925644924      -0.0004615167603735 0 0
H           7.7300563192921290      15.3793044595524346      -2.0678525756522381      -0.0001716654886670      -0.0007347319606915       0.0019098324050980 0 0
C           5.6608734026863807      14.9087680942920358      -2.1340106793058942       0.0001723043270251      -0.0000522500322272      -0.0001033712129369 0 0
H           5.5444722177866099      15.0930294026499734      -3.2088543168697270       0.0004974002506044       0.0005900851899364       0.0007799434339263 0 0
C           2.9862327202816763      14.1338119438397740      -3.4386207299733780       0.0003635610404753       0.0002300908692669      -0.0000461992737984 0 0
C           4.0062204237645345      13.8145921627023824      -4.5272364953921249      -0.0002750019122307       0.0003384853649966       0.0001025932942562 0 0
C           3.9961439495309756      14.4586167447825282      -5.7373619755341112      -0.0002590902135430       0.0000062006340641      -0.0000181937727274 0 0
H           3.1713528465195009      15.1637245966611456      -5.9630232608910090       0.0013231784160412      -0.0002654538522536       0.0010089559435384 0 0
C           4.9177238693066592      14.2268608949913027      -6.7218745739550423      -0.0002357236885186      -0.0002510076771351      -0.0001606940128000 0 0
H           4.7098364797829504      14.6234062326957570      -7.7391015753318779      -0.0002495373210337       0.0004615715559566      -0.0010013766025847 0 0
C           5.8704812089308751      13.2443631693757062      -6.5188156156094212      -0.0000313876906433       0.0003096534820724      -0.0002501569798762 0 0
H           6.5753702344928140      12.9825479737989191      -7.3957189138674986       0.0000976577446343      -0.0001606580885385       0.0001498895873508 0 0
C           5.8828908122620707      12.5736832632977489      -5.3175247931230274      -0.0001291634907104      -0.0002063539795775      -0.0002451905319904 0 0
H           6.4852798209483558      11.6165715365932307      -5.2747182257671028       0.0003846212206020      -0.0010117093211552      -0.0002718073409110 0 0
C           4.9410976327435154      12.7934701720121851      -4.3279653117131165       0.0002773639076451      -0.0003026141978846      -0.0002068148984016 0 0
H           4.7938182795538680      12.0562372529966382      -3.5308792393832449      -0.0002966250554520      -0.0003714395058856       0.0012071233428063 0 0
C           1.5129199936104556      14.1849733226939954      -3.8736032374057094       0.0001386489521491       0.0001912893723327      -0.0001788045174952 0 0
C           1.1013231733229349      13.4048499556449823      -5.0876618244517724       0.0002169616644088       0.0000563940623451       0.0000561988694472 0 0
C           0.8623209462958477      12.0230543159099224      -5.0151278271461974      -0.0001804409521729       0.0000011450663171       0.0001129470919265 0 0
H           0.7320184719585101      11.5940425373501661      -4.0253628671494868       0.0000010789710321       0.0002595809906965      -0.0008453252376835 0 0
C           0.5853662606092048      11.2899708292070553      -6.0541791865655954       0.0000272049116853      -0.0000611961160082       0.0003659841711344 0 0
H           0.3153028025403863      10.1327910325591333      -6.0873171614724457      -0.0002443500442979      -0.0007410013874328      -0.0005973354985718 0 0
C           0.5663194435430807      11.8023173637778331      -7.3788665209319824      -0.0000516936855170      -0.0001464614027626       0.0001973741318639 0 0
H           0.0740748768532810      11.1806705079233080      -8.2343310442892470       0.0008296147367612      -0.0000202232230285       0.0009182159528270 0 0
C           0.7922000842226835      13.1532705180748568      -7.4810896387511150      -0.0000212330310282      -0.0000108470254781       0.0001703785412679 0 0
H           0.7382679107480713      13.4604983929739284      -8.5460898697453480       0.0003458992708669      -0.0011784154026615      -0.0014276145814057 0 0
C           0.9868743748061753      13.9259638805205306      -6.3936172437350054       0.0000713941510619       0.0001342474352953       0.0000538332982564 0 0
H           1.1421821512588382      15.0052302102856583      -6.5891390205444855      -0.0000075790921872      -0.0013001881144326      -0.0004202429673833 0 0
C           0.6118905797077783      14.7928870526706824      -2.9712167871999458      -0.0001434467373152      -0.0000142848698444       0.0000814245264862 0 0
C          -0.8017276390447164      15.2302776484071440      -3.2788054258379526       0.0000756257796054       0.0000858008155694       0.0000685383843293 0 0
C          -1.6787622716425512      15.4019922169261534      -2.1728679280106680      -0.0001195448455635      -0.0002360424706691       0.0003953938277156 0 0
H          -1.4092055420070695      15.1425142484558748      -1.1329211525846759       0.0007109709659087      -0.0003106715064788       0.0008362286926787 0 0
C          -2.9533924987434825      15.9643204301995070      -2.4392675299298934      -0.0000920358333246      -0.0000789958879014      -0.0000392681335902 0 0
H          -3.6269791829213491      16.0347537812121992      -1.6220248169428169      -0.0001726878034928       0.0001362502843917       0.0002935482933356 0 0
C          -3.3526536047507260      16.2854204527783786      -3.6915831608218239       0.0001982178115184      -0.0002236419928068      -0.0001337964470491 0 0
H          -4.3208398347110615      16.6697996448076360      -3.8416071976926709      -0.0007408027459914       0.0008176477885077       0.0000920663228151 0 0
C          -2.5151916409849266      16.0405761905498032      -4.7552778017572432       0.0002416322928174       0.0000339278257667      -0.0001211954521360 0 0
H          -2.8884336721323454      16.2414467335716921      -5.8230609532686248      -0.0003808972196941       0.0002128268443776       0.0003204869225917 0 0
C          -1.2347011199500013      15.5119888887952122      -4.5530874114459987      -0.0000514699500083      -0.0000745797041780       0.0003526579769097 0 0
H          -0.6802440573317564      15.4193552914922467      -5.3670254654475817       0.0008494063283141       0.0001537077418909       0.0000191762553060 0 0
C           1.8520459353277106      16.5071046047361527      -0.6964510883615942       0.0000112119043764       0.0000758455325030      -0.0003347478613689 0 0
C           0.8058702143429388      16.9144261097447028       0.1062416946438597      -0.0001935520317704       0.0000061112525996       0.0002036063293962 0 0
H          -0.2684497276692925      16.7313702242636282      -0.3054478815356380       0.0009485135337305      -0.0003998648830671      -0.0001992584388593 0 0
C           1.0161572096114122      17.5289811127868127       1.3670740469847840      -0.0000567728189235       0.0000788345410377       0.0001475236393891 0 0
H           0.1901327700913085      17.9363187852369563       1.9160489766542024      -0.0011961868292169      -0.0000495428788733       0.0005809700330053 0 0
C           2.3312194045335741      17.6257935789538323       1.7569416863458986      -0.0000662170635420      -0.0002307321046210      -0.0000904399529209 0 0
H           2.5405328080844520      17.9554161405264878       2.7453272931557775       0.0003882814451529       0.0006099526676771       0.0014905316145520 0 0
C           3.3675403356653293      17.4828419400355379       0.8606136661371433      -0.0003136016660013       0.0000656150613461       0.0004541173295848 0 0
H           4.3492104634014117      17.6290991345561636       1.2224009524509714      -0.0004984069864645       0.0002504812951959      -0.0011198260704616 0 0
C           3.1516400033339833      16.8944524750482152      -0.4015110596636082       0.0000712303511087       0.0001602643852231      -0.0002456555259952 0 0
H           4.0038467305032173      16.6829152064442532      -1.1659735353954646       0.0000366412797722      -0.0002859943335983      -0.0003459761807612 0 0
C           0.7632543166284522      13.7980072697669147      -0.1952471191211852      -0.0001800508657256      -0.0002528141110293       0.0001904391049230 0 0
C          -0.1680393351298362      12.8678239958896885      -0.6470169913964251      -0.0002177566716842       0.0003086621229175       0.0001235151442731 0 0
H          -0.3561620815045235      12.7881059323933393      -1.7559410989884996       0.0001450283465768      -0.0001515302198452       0.0005403109191775 0 0
C          -0.8396945791838523      12.1514056564217583       0.3241603159518458      -0.0000225012867040       0.0000448447841544      -0.0001696580699259 0 0
H          -1.6069582860891536      11.4892726747825886       0.0341187181015437       0.0015807413330110       0.0003590957329533       0.0000226401120002 0 0
C          -0.6808603958791194      12.4003588955674466       1.6657621967206049      -0.0003505997622671      -0.0002586589261801      -0.0002780044448531 0 0
H          -1.1675216273221101      11.7926801664407197       2.3659817560536984       0.0000989613022693       0.0004911566221112       0.0015966954803359 0 0
C           0.1767827699551790      13.3672394545730242       2.1103090888723068      -0.0000636283654329      -0.0001033452149100       0.0004846747567486 0 0
H           0.4403850106957537      13.5787800524788391       3.1936788302991870      -0.0006676327907038      -0.0004624485092385      -0.0025545548078685 0 0
C           0.9567055201761647      14.0389050490641250       1.1584383364685746       0.0003815185254376       0.0000316117083788       0.0000723176737494 0 0
H           1.6975237574989299      14.6749437841184704       1.5333530075941026      -0.0001945443097786      -0.0002419443256777       0.0002582000938273 0 0
