28
COTH highlevel 1-28 extracted from run_files/cothagg.xyz
S -3.0368880624145396 -0.7452019975590586 -1.2567795935741803
S -2.1999370392276205 -1.7602086718503769 1.8062930399242023
S 3.4188255139337320 -0.2821426590189436 -0.5262303979195465
C -1.4231181530494716 -0.6353676553202641 -0.5869420953746441
C -1.2369891605251475 -0.6939132965136845 0.8373729955394598
C -1.7127213939650077 -1.0315361834102568 3.3462709856122896
C -0.7485224477905696 -0.0852326194723745 3.0517838864323736
C -0.4884474409638618 0.1557861222925947 1.6948933767813350
C 0.2992531693765706 1.2697830349922941 1.2479472924827291
C 0.1064424504274236 2.5646064441928695 1.8117317101009838
C 0.9906769489760670 3.5333234155524176 1.2879824723202424
C 1.2051132786334342 1.2548220722387204 0.3130692839481984
C 1.6626870724289879 0.0818716381555762 -0.4480229504937302
C 3.1031700640988840 -1.6304530221423719 -1.6527965815183157
C 1.7950232050024766 -1.6751557276427325 -1.9760903351284074
C 0.9286517119773083 -0.6731932717434819 -1.3293910970375298
C -0.4721071912448417 -0.6215741667800598 -1.6305636258352352
C -1.0933538272417309 -0.8741540660657328 -2.9003046624174114
C -2.4807777706533569 -0.9192509016174444 -2.9040107560326596
H -2.0095980891387679 -1.4780340984569955 4.1307153971898343
H -0.4434793528921804 0.6904775112805197 3.8796390384649180
H -0.5659586004054573 2.8814659584860358 2.5775012185738082
H 0.9679509798083117 4.6327322420478998 1.3885934870286101
H 3.9583160457925421 -2.4058337117515380 -1.7983230376676613
H 1.3802513299544266 -2.3725415341298000 -2.6714545705015493
H -0.6302673310582688 -0.9324180029818077 -3.9724254166994384
H -3.2478983301569837 -1.0616432889981027 -3.7525814735917238
S 1.9737024203176421 2.8129864362160975 0.0321224093930447
