924

S          -3.0368880624145396      -0.7452019975590586      -1.2567795935741803      -0.0000917995486064      -0.0000359610752106      -0.0000413947551223 0 0
S          -2.1999370392276205      -1.7602086718503769       1.8062930399242023      -0.0000027583239499      -0.0000092104218966      -0.0000062080644711 0 0
S           3.4188255139337320      -0.2821426590189436      -0.5262303979195465       0.0000578039990178       0.0000056417415231      -0.0000938372947051 0 0
C          -1.4231181530494716      -0.6353676553202641      -0.5869420953746441      -0.0000729518453647      -0.0000246087786643       0.0000218012448914 0 0
C          -1.2369891605251475      -0.6939132965136845       0.8373729955394598       0.0000982853002878      -0.0001290537343305      -0.0000356378708396 0 0
C          -1.7127213939650077      -1.0315361834102568       3.3462709856122896       0.0001013224699409       0.0000329230784457      -0.0000592419417077 0 0
C          -0.7485224477905696      -0.0852326194723745       3.0517838864323736       0.0000054717615446       0.0000892996206120      -0.0001093194824836 0 0
C          -0.4884474409638618       0.1557861222925947       1.6948933767813350       0.0000319249501013      -0.0000105684462602      -0.0000981255689941 0 0
C           0.2992531693765706       1.2697830349922941       1.2479472924827291      -0.0000411569449800       0.0000562471717507       0.0000011484128049 0 0
C           0.1064424504274236       2.5646064441928695       1.8117317101009838       0.0000684948633993       0.0000282308653005       0.0001220184048234 0 0
C           0.9906769489760670       3.5333234155524176       1.2879824723202424      -0.0001425422704758       0.0000787237833841      -0.0001402146145648 0 0
C           1.2051132786334342       1.2548220722387204       0.3130692839481984      -0.0000870470509066       0.0000305989615918      -0.0000309348059867 0 0
C           1.6626870724289879       0.0818716381555762      -0.4480229504937302       0.0000058221063303      -0.0000805303312101       0.0001850462818252 0 0
C           3.1031700640988840      -1.6304530221423719      -1.6527965815183157      -0.0000958674450152      -0.0001364362972874       0.0000962669950450 0 0
C           1.7950232050024766      -1.6751557276427325      -1.9760903351284074      -0.0000701696330819       0.0001089527600040      -0.0000936758965012 0 0
C           0.9286517119773083      -0.6731932717434819      -1.3293910970375298      -0.0000167716052147       0.0000239841070883       0.0001073276506383 0 0
C          -0.4721071912448417      -0.6215741667800598      -1.6305636258352352      -0.0000049774924815       0.0000835254433006       0.0001107681082323 0 0
C          -1.0933538272417309      -0.8741540660657328      -2.9003046624174114       0.0000908790531141       0.0000754290339170       0.0000940611465866 0 0
C          -2.4807777706533569      -0.9192509016174444      -2.9040107560326596       0.0000964437169097      -0.0000350657249861       0.0000089691541249 0 0
H          -2.0095980891387679      -1.4780340984569955       4.1307153971898343       0.0001725703430992       0.0000578747443854      -0.0000277096431842 0 0
H          -0.4434793528921804       0.6904775112805197       3.8796390384649180      -0.0000368996738184       0.0001690670876589      -0.0001410934034118 0 0
H          -0.5659586004054573       2.8814659584860358       2.5775012185738082       0.0001684010317988       0.0000244672371724       0.0002181623841928 0 0
H           0.9679509798083117       4.6327322420478998       1.3885934870286101      -0.0002029886473173       0.0001134114623709      -0.0002706173359475 0 0
H           3.9583160457925421      -2.4058337117515380      -1.7983230376676613      -0.0001454869428871      -0.0002234060759536       0.0001295383894920 0 0
H           1.3802513299544266      -2.3725415341298000      -2.6714545705015493      -0.0001142138119556       0.0002300261500628      -0.0002122753464094 0 0
H          -0.6302673310582688      -0.9324180029818077      -3.9724254166994384       0.0001473581224947       0.0001190326014165       0.0001307062053852 0 0
H          -3.2478983301569837      -1.0616432889981027      -3.7525814735917238       0.0001843193613242      -0.0000650500509862      -0.0000584214438779 0 0
S           1.9737024203176421       2.8129864362160975       0.0321224093930447       0.0000436159374949      -0.0000456465656871       0.0000811935276198 0 0
S          -3.9155991873887301       6.2271395503234350      -0.6542174307803225       0.0001908815417577       0.0000315699764347       0.0002257507003102 0 0
S          -3.1449344048601278       4.3746133738824806       1.8140573243494384      -0.0000649269523691      -0.0001131580144068       0.0002129714719416 0 0
S           2.5812837028529594       5.8455817441046909      -1.4334937878530594      -0.0000866562496698      -0.0000016376088982      -0.0000352226276036 0 0
C          -2.2529905882759889       5.9579516941287221      -0.3102204828466647      -0.0001017411634572       0.0000433462576778       0.0001957748230585 0 0
C          -1.9262226615220952       5.4336180536573027       1.0133717335706844       0.0000170482720383      -0.0004851561889685       0.0002244525523951 0 0
C          -2.0931571746305653       4.1350877126878469       3.1635953555108407       0.0000187319254842      -0.0000533822758835      -0.0001859917101440 0 0
C          -1.0006392218410796       4.9182152327576638       3.0144892682979516       0.0004244957166345       0.0000964624154012       0.0003634292752788 0 0
C          -0.8839418779973022       5.7452183191620874       1.8360487623955488       0.0000420144974179      -0.0001994216627884      -0.0000023429320602 0 0
C           0.2260864306143642       6.7417348065018210       1.6332958145167895      -0.0000369894733120       0.0002696186435951      -0.0003439206662015 0 0
C           0.5587619456307898       7.7580113319748323       2.6282756240318932       0.0000146195880769      -0.0001512033029379      -0.0000914422406752 0 0
C           1.5679769216453014       8.5430512395231908       2.2175738258339770       0.0002665820948537      -0.0001218968142732      -0.0001675702621944 0 0
C           0.9786287960539503       6.9452788955295830       0.4788165480402681       0.0000155319435824       0.0000147820600921       0.0000151962390565 0 0
C           0.9959078384435637       6.1585887491339255      -0.7369403491643407       0.0004543919512290       0.0000273715892102       0.0002922331228130 0 0
C           1.8793609993201772       5.1235807562338644      -2.8247790212855648       0.0000964546650208      -0.0004120035747040      -0.0002261859106899 0 0
C           0.5230963797608319       5.1187082234333801      -2.7986397341205342      -0.0003174663092832      -0.0002400039705285       0.0001041268455079 0 0
C          -0.0204180456221875       5.7549073320373978      -1.6238769729895661       0.0000392351051677       0.0001773380592405      -0.0002874045726323 0 0
C          -1.4744491875152490       5.9814391560775508      -1.4604265877703047       0.0001212488204535      -0.0002193178357978       0.0000885208215491 0 0
C          -2.2914072148198117       6.1104452895476227      -2.6205978346895966      -0.0002503770126414      -0.0002387668706795      -0.0001363472171158 0 0
C          -3.6435407229441030       6.2457687837569376      -2.3338382601647401       0.0002900152117823      -0.0003247574060300       0.0000675935130643 0 0
H          -2.2219774880621865       3.4291622149865564       3.9946447628739330      -0.0009550912322500      -0.0012635958258584       0.0007384091804583 0 0
H          -0.1686779945318534       4.9631610466687359       3.7263819117561146      -0.0005412254995916      -0.0011043079918433      -0.0002843510629786 0 0
H           0.0815485698323859       7.6888768721893452       3.6420758428719644       0.0000275049537210       0.0005398865059475      -0.0012965956006358 0 0
H           2.0742049576561117       9.4020199138768294       2.7393849693483476      -0.0007130451404241      -0.0009414836022391      -0.0014672977864535 0 0
H           2.5437293894057764       4.6928879187253489      -3.6221931001060783      -0.0017691375184386      -0.0002305597521351       0.0007798834179494 0 0
H          -0.0434946807974822       4.5365268728888495      -3.4968734414180034       0.0008620780829648       0.0015277006733641       0.0015812120337648 0 0
H          -1.9104805791834996       6.0160332564588650      -3.5710630315492273      -0.0000105462958453      -0.0004760342779061      -0.0009190997427975 0 0
H          -4.3617510742455963       6.3293566981456202      -3.0395093336620915       0.0003467562001147      -0.0009053106562179      -0.0009445266716500 0 0
S           2.0913811391371047       8.3175077801704447       0.6268420910903307       0.0002090369378031       0.0001663649368501       0.0000456353565214 0 0
S           4.6325093037421539      -4.9231571455460879       4.4523582990145600       0.0001526823138391      -0.0001935140101745       0.0002130472811180 0 0
S           2.4542944033458420      -3.0250403796736460       2.0265012103412934       0.0001728820712769       0.0000937202091656      -0.0001361639261260 0 0
S          -1.0942105037790306      -2.5595832999158685       6.3654916702847002      -0.0000087580162773       0.0000575392634114      -0.0002674351218141 0 0
C           3.0816792332959553      -4.1676890362737602       4.4758652966519206       0.0000770950968973       0.0001350840437072       0.0001811788237025 0 0
C           2.7232580141199598      -3.0121438745357429       3.7028196683407741       0.0001410925124061       0.0001906435379333       0.0003528586063223 0 0
C           2.2835523655895802      -1.3760940525440553       1.9922159672236142       0.0001414289889061      -0.0000523432330602       0.0001706794518493 0 0
C           2.3727456446351054      -0.7401667654540612       3.2028108734945850      -0.0000560795500599       0.0004090551456134       0.0002502588997707 0 0
C           2.5970677263241546      -1.7300663033303449       4.2545710012742743      -0.0000229490873968      -0.0000276709436877      -0.0002974028327461 0 0
C           2.5165946071955050      -1.3711631001319913       5.6809158492224112       0.0003765165593551       0.0001250180480562       0.0000827029170927 0 0
C           3.4488979801796740      -0.5684359773138189       6.3800521851134944      -0.0000185550527672      -0.0003886869008357       0.0000399659168124 0 0
C           3.1115300499683149      -0.3281223065994107       7.6696343499185922      -0.0002782430514520      -0.0001112365217650      -0.0001560919805207 0 0
C           1.5816596751394936      -1.8272525633480932       6.5968860121374373       0.0000621039444985       0.0002066395029815       0.0000620405855030 0 0
C           0.5688245367107272      -2.8325801172265419       6.1698971836529264      -0.0003561667669420       0.0000334549363787      -0.0002926955547671 0 0
C          -1.4310237155114935      -4.0843311715245640       5.7036254839170750      -0.0000027677989638       0.0000190313926945       0.0001204975937273 0 0
C          -0.3522797988851897      -4.8751544473257082       5.4540544072944819       0.0001183505682082       0.0000956782719354       0.0000809796299618 0 0
C           0.8321922908702767      -4.1398639545263602       5.7791113971871608      -0.0000744319438257       0.0001018166696760      -0.0005229872875359 0 0
C           2.2051262030529259      -4.6181057514251780       5.4767884153337665       0.0001392034285454       0.0000035665149171       0.0002375131152080 0 0
C           2.8895249654691977      -5.6655131290891232       6.1674814923134216      -0.0000807913747494       0.0000708524916976      -0.0000077578708117 0 0
C           4.1215973497119052      -5.9351402331420235       5.7206063117077628      -0.0001767688600930       0.0001364756073181      -0.0001331599626997 0 0
H           2.1150540290231801      -0.8489661833012554       1.0464656053973687       0.0000712326490426      -0.0005926557108505       0.0016861964233199 0 0
H           2.3363415690559659       0.2836337437670558       3.3577299756081196      -0.0006369143887684      -0.0017741681725948       0.0003300336889596 0 0
H           4.2804930289918346      -0.0044830487926413       6.0025448977217781      -0.0003388124609822      -0.0006169191558446      -0.0002694878803645 0 0
H           3.5067956929307309       0.3520305215625752       8.3518125348584249      -0.0000881944845538       0.0009489579742005       0.0021773831339043 0 0
H          -2.5292586592390727      -4.3555032306419070       5.5118199228548077      -0.0015023284223079       0.0001788016803173      -0.0003184632401153 0 0
H          -0.3828499440475764      -5.9288017235856705       5.2123717069680930      -0.0006407471036120       0.0005402025132954       0.0004728060638343 0 0
H           2.5833912432247841      -6.0893143033152493       7.0722258928411463      -0.0004262269202774       0.0003729124673858      -0.0004394280453398 0 0
H           4.8665049928207438      -6.6669498581183193       6.1117595056329037      -0.0001091625498099      -0.0003616681945414      -0.0027459457449983 0 0
S           1.7522727129122764      -1.1920113031121802       8.2175450946040733      -0.0001177984272179      -0.0001373458831396       0.0001368407815205 0 0
S           6.8059051392106307       2.5888363835097312       5.8410970920215810      -0.0000528872562327      -0.0001416048429455       0.0002755964403987 0 0
S           5.5902163117727666       0.1164092728384544       3.6948761868511961       0.0000455634013196      -0.0000643992697085       0.0000747672837466 0 0
S           0.5260347338022894       2.6195569540676926       5.0227120213225209      -0.0002697352291219      -0.0000332659642508       0.0000180105910744 0 0
C           5.1878321577695026       2.2945992116714371       5.4302674567374831       0.0001619379786494       0.0001405059252802       0.0000513713599034 0 0
C           4.9098718553860143       1.6430295796349939       4.1261868426540191       0.0001303393472988      -0.0001735188560913      -0.0001850775623454 0 0
C           4.9926598591082367       0.3931177683149687       2.1031066666564580      -0.0000985947105415      -0.0002431326386499      -0.0001898519492818 0 0
C           4.2852892070347020       1.4948046518875211       1.9064149869299283       0.0001541194832449       0.0002166406231941      -0.0000088092410379 0 0
C           4.3660551286423610       2.2956683735489394       3.0728597465435841       0.0001053337007094      -0.0001562164304597      -0.0000592409189628 0 0
C           3.7634970693385457       3.6274858168633615       3.2114701507949603      -0.0002638579563958      -0.0000286947959704      -0.0001991163436916 0 0
C           4.2823524863697076       4.7756272314282588       2.5754337093314570      -0.0001865758845469       0.0001528466781048       0.0002228536218954 0 0
C           3.5521961729393481       5.8526199887542969       2.8970548610190447      -0.0003315474879238       0.0000466146453255       0.0000800383911721 0 0
C           2.7522726283107448       3.9489706411926866       4.0987906194783585      -0.0001970389992565       0.0001156003002986       0.0003316910575365 0 0
C           2.1770138445169680       2.9758389254916882       5.0824060084685696       0.0001890612753797      -0.0002530541152955      -0.0001318510539896 0 0
C           0.5934259078965588       2.1422207571895093       6.6795399309469481      -0.0001935625288418      -0.0001575273688693      -0.0004782669582557 0 0
C           1.8398537208870605       2.1912668001358142       7.2008085888630502       0.0002625337110504      -0.0005094882937613       0.0000770227890615 0 0
C           2.8067552290233091       2.6296436505032519       6.2518727740331661      -0.0000997921548985      -0.0000745561848161      -0.0000323533628731 0 0
C           4.2693544690098140       2.6987674648503508       6.4005797595849332       0.0000187690593579      -0.0000503274221814       0.0002402606096551 0 0
C           5.0172081046208632       3.0570622927805502       7.5941909759658612       0.0001633580052881       0.0001194540553393      -0.0002645428214905 0 0
C           6.3514230360877013       3.0980469441066094       7.4007873634224541      -0.0000474394670800      -0.0002375173117269       0.0000480184472403 0 0
H           5.1030741491912144      -0.5027545453896779       1.3735350820577550      -0.0001265865887916       0.0004608091848583       0.0012650115253698 0 0
H           3.8844872566606798       1.8486159866593004       1.0694217085701891       0.0002244420033412      -0.0013185702054474       0.0011373404891846 0 0
H           5.0760633985973058       4.7589354051691073       1.8329907170714512       0.0002479272460218       0.0002940060930938      -0.0017029412763824 0 0
H           3.5873570205310958       6.8056594208103718       2.4516011602209420      -0.0011701647115823      -0.0000408989515669      -0.0015102009754008 0 0
H          -0.4050655896422394       1.8827254829111055       7.1142936347739587      -0.0012491420725007      -0.0004494115848477      -0.0001210664359502 0 0
H           2.1598517051743964       1.8846539646264235       8.2464782633004567       0.0011954657397993      -0.0007018403581115       0.0002136362110951 0 0
H           4.6417748496565849       3.2457871453565179       8.5700727262215022      -0.0000919751146612       0.0001888446590194       0.0022205559134236 0 0
H           7.1737552930226514       3.4964859975403204       8.1448410396581732       0.0016335971975054       0.0004839903984906       0.0005662381529889 0 0
S           2.2693309111198579       5.6169277993512017       4.0029735600342393       0.0000216580398943      -0.0000937096958740       0.0001650277389169 0 0
S          -1.6279647754976094       2.6701932863119433      -2.1494957309388334       0.0000313875440849      -0.0000824613781000      -0.0000421063064258 0 0
S          -1.5325341927419178       1.6354596535489390      -5.0949577164656397       0.0002694716744821       0.0001653966119347       0.0001278698791621 0 0
S          -7.7030174378607636       3.8754163619094895      -4.3688715662695969       0.0001841504196670      -0.0000667295641224       0.0000117333628180 0 0
C          -3.0012417092964174       2.9403563792900909      -3.1993124187585602       0.0000914372322076      -0.0000061183162916       0.0001340113269721 0 0
C          -2.7437041663423298       2.7747792424540654      -4.6114129749061972      -0.0002629830006825      -0.0001173945315026      -0.0004015788605445 0 0
C          -1.7605325754676153       2.0898654040692528      -6.7235727581729083      -0.0000521177032674       0.0002189759354274       0.0002000978414945 0 0
C          -2.7439531532323578       2.9533171594976624      -6.9277083856599209       0.0000132702828732      -0.0003654972650022      -0.0000886008117514 0 0
C          -3.2800741235023709       3.4448482921086390      -5.7039768872103211       0.0000541174737321       0.0002458083560808      -0.0002090621763404 0 0
C          -4.0338138061470179       4.6889251203523097      -5.5127492874543131      -0.0000337778476018       0.0000482374205115       0.0002274665361035 0 0
C          -3.5832785428736531       5.9713360401795823      -6.0142367116099997       0.0001409976430640       0.0001083515539958       0.0004486298938011 0 0
C          -4.4654247219122150       6.9649983578833803      -5.9328038176484252      -0.0002221430975536       0.0000083366513297       0.0001032051221077 0 0
C          -5.2674353669770895       4.9492862069204850      -4.9479884540367349       0.0000364968909153       0.0001437036081017      -0.0003223844609570 0 0
C          -6.0366632819088437       3.9653667188922199      -4.1922139407950256       0.0000947160002770      -0.0002033085211884       0.0000045137517418 0 0
C          -7.8431640430887262       2.8052405119184614      -3.0667647573414429       0.0001407164829045       0.0002722360559393      -0.0002358608391117 0 0
C          -6.6337111212074973       2.5230319800730414      -2.5084046176960340       0.0000978304552609      -0.0002003455283154       0.0000605666756953 0 0
C          -5.5420572045168459       3.2276679987376458      -3.1059876934748707      -0.0000123653430925      -0.0001196106003800       0.0000746032360150 0 0
C          -4.1837091509366697       3.1466986706844113      -2.5329041870796680       0.0000583429118973      -0.0001017451011452      -0.0000623346664441 0 0
C          -3.8863962142596393       3.0378095837758918      -1.1190032629517344       0.0002847347521526       0.0002492417811358       0.0001231410600308 0 0
C          -2.5987591803263457       2.7634129714162636      -0.7705487596625546       0.0000765258032000      -0.0002913460851137       0.0001214960795160 0 0
H          -1.2284185395895559       1.6111205566590823      -7.4756738367961839       0.0004960205837010      -0.0007401021703656      -0.0015049875984148 0 0
H          -2.9981891463101431       3.3341377935203447      -7.9286609122851335       0.0003704934021996      -0.0007889099528534       0.0000082340130361 0 0
H          -2.6177437657904972       6.1689544923251205      -6.4467035803457797      -0.0005912088390782       0.0005922067032128      -0.0001883473594457 0 0
H          -4.0853758506427873       8.0858472551009886      -6.0220306436199298      -0.0016261608108508       0.0019253082276489       0.0002102046996726 0 0
H          -8.7990953138382686       2.4994757456864085      -2.8826294619911588      -0.0008664466661108      -0.0004584364147432      -0.0004809497416146 0 0
H          -6.4517324073888416       1.9803773095117485      -1.6865307813125989       0.0004757962391774       0.0000340957829704      -0.0008638586379535 0 0
H          -4.6258852933372197       3.2652971495347072      -0.2918309057876220       0.0007443328310802      -0.0008945257190215       0.0003227214136966 0 0
H          -2.1271670482606537       2.6542906908455697       0.1994565602195408       0.0002994216593047      -0.0001917516893424      -0.0015357621099195 0 0
S          -5.8920658351444937       6.5469458539252967      -5.1441781195043257      -0.0003122604893839       0.0001141767073715       0.0001468854720480 0 0
S          -1.5346417652962212      -9.7778999202945283      -2.4948360801683891      -0.0001248824107602       0.0001525949222726       0.0000501182168092 0 0
S          -0.8761917931187477      -9.6959481276507873       0.9106007312951182      -0.0001859822892939      -0.0000141859971698       0.0000559202128484 0 0
S           2.5353333249635090      -4.6765516283225832      -1.3586803817917303       0.0000128089773793       0.0001310496093186       0.0000484402719288 0 0
C          -0.6846296078477750      -8.5814025842487247      -1.6052148947359202       0.0001450603096340       0.0001282714348707      -0.0002043649658427 0 0
C          -0.8244081811664992      -8.3609571806498124      -0.1871830023082556      -0.0002781919645948      -0.0000514102236028       0.0001100446762785 0 0
C          -0.8907919688940732      -8.5943579450784835       2.2657089269491246      -0.0000041538199728      -0.0002553108808131      -0.0002945057911044 0 0
C          -0.7799088670873479      -7.2866650843529781       1.8363970971471237       0.0001460146094686       0.0001796427621136       0.0001344858354877 0 0
C          -0.8508579521792573      -7.0921831787183729       0.4117439497328064       0.0000401763521904       0.0003372186227069      -0.0001402893689302 0 0
C          -1.0146191162988047      -5.7990396568311553      -0.2294556217647869      -0.0000167749178945      -0.0000264883677647       0.0001457472549167 0 0
C          -2.2346119978813994      -5.0221966119176216      -0.0812963535530302       0.0001067097420372      -0.0000339231175090      -0.0001492335387744 0 0
C          -2.1974363022351304      -3.8979297851459749      -0.8246598974447744       0.0004535797433007       0.0001183026191565      -0.0005113046138133 0 0
C          -0.1746986735499596      -5.2110445434655537      -1.1304868696187678      -0.0002080215255911       0.0000043601298499      -0.0000670148292755 0 0
C           1.1538249151982858      -5.7253419657275426      -1.4533289984136628      -0.0000370815115172       0.0000786516708488      -0.0001187122018410 0 0
C           3.3801530771880670      -6.0076033484975477      -2.0495089201965095      -0.0000779093227007       0.0001551841182782      -0.0000431919504783 0 0
C           2.7022668328550674      -7.1589770895162435      -2.2724486482869120       0.0000128894376097       0.0002101036621757       0.0004553001069902 0 0
C           1.3624796804555663      -7.0284028568025647      -1.8240289819506654       0.0000354993867061       0.0001632955226302       0.0000559896889148 0 0
C           0.3063783951847261      -7.9040547620015191      -2.3305602936829430       0.0004201067401471       0.0001280272273766       0.0003876022048985 0 0
C           0.2246449774005018      -8.3024751167763835      -3.6989906797490879       0.0003922574704494      -0.0001705131812146       0.0000289445518684 0 0
C          -0.6621269435412203      -9.3412593958786090      -3.8352872280320964       0.0003639491396699      -0.0000620436185300       0.0002385137605981 0 0
H          -0.9546016120143153      -9.1122346695620120       3.2961547142532521      -0.0005428978052184      -0.0009259988259702       0.0002517437345826 0 0
H          -0.9234077085569083      -6.4920745996658180       2.4320398932446556       0.0003659729237007      -0.0006727748059898      -0.0000701396787812 0 0
H          -2.9717841470476181      -5.2507225369355748       0.7209850612294967      -0.0002421744528920       0.0002432740964618       0.0003878611675726 0 0
H          -3.0600500519325462      -3.2439219960495991      -1.1119811392955372       0.0004482197857845       0.0001297198850866       0.0003774661331873 0 0
H           4.4496592957454588      -5.9144121587007286      -2.0990016684511188      -0.0000754348464133       0.0012954662879771      -0.0010203822864025 0 0
H           3.2708440443024638      -8.0758211958707218      -2.5993692676427456       0.0002854754704243       0.0007977320046872      -0.0004787653280319 0 0
H           0.7555383177921964      -7.8306179646735954      -4.5371290817320151      -0.0002384650256663       0.0000914084258159      -0.0005315800056898 0 0
H          -0.8593638364351197      -9.8582860124427878      -4.8393189043834992      -0.0008902503824088       0.0001144624413598       0.0005193290632060 0 0
S          -0.7128423947653602      -3.7345331457493907      -1.7782382520022142      -0.0001730369394017       0.0000702751976851      -0.0000350104547350 0 0
S           7.9883456854307298       1.9724771704039059      -2.1170404849191695       0.0002574345776353      -0.0001612193962398      -0.0001667231978436 0 0
S           8.3763521626619006       0.6458227729509531      -5.1021008160389547      -0.0000509668308118      -0.0000056137637067       0.0002114767522158 0 0
S           2.4486702876808986       3.1172143006893558      -5.5490596093173279      -0.0001971808605097       0.0000193845699407       0.0000398910479975 0 0
C           6.8111015401633406       2.1574001749806100      -3.3857946234536116      -0.0002755866193236      -0.0003002721746515       0.0002004798242564 0 0
C           7.2953602305018821       1.9357569463715463      -4.6759917411338892      -0.0000375499611378      -0.0002807034380089       0.0001124536906911 0 0
C           8.4213134216946326       1.1712917295475231      -6.7307501105002068       0.0000575569637935      -0.0001394969025781       0.0000228842178254 0 0
C           7.6485807433733743       2.2406152072528775      -7.0389093763357966       0.0000139338277355      -0.0002517164805410       0.0002710261500550 0 0
C           7.0402222218760118       2.7339453479130218      -5.7764162858878159       0.0000466411187874      -0.0002150293609651       0.0001387681260522 0 0
C           6.3452208187877952       4.0141270229214392      -5.7681857241604106       0.0000441709954031      -0.0000598664265076       0.0000787385369278 0 0
C           7.0231674865228886       5.2039028777584031      -6.1960562757512898       0.0000578085417214      -0.0001104770894155       0.0003682017213426 0 0
C           6.1865652649880980       6.2665394431470354      -6.2643689056617777      -0.0001901818703839      -0.0000626752541906       0.0001077406983485 0 0
C           5.0020336669668959       4.2673815406586151      -5.5590034007664970       0.0001615455424557       0.0002661528062432       0.0000201577063568 0 0
C           4.0350946251202719       3.3313281118316538      -4.9210560732763442      -0.0001843029988987      -0.0001509752325318       0.0000926953375482 0 0
C           1.9604367577921797       2.1571885497154359      -4.2364340877693882      -0.0000127422418361       0.0001678786541712      -0.0001214953017704 0 0
C           3.0239255640032296       1.9095088469756261      -3.4290436237653896      -0.0001492733570330       0.0001979842226404       0.0001056995387060 0 0
C           4.2436710609325239       2.5626623581074623      -3.7932676147948445      -0.0000339350961411      -0.0000691452073081       0.0001433953696691 0 0
C           5.5108523557863123       2.4224947262890444      -3.0078693206861375       0.0000645164529901       0.0003834209137055       0.0000164538039626 0 0
C           5.5477093632822720       2.4786562542479338      -1.5581303258197288       0.0001281469975751       0.0000510992548043      -0.0003575535149686 0 0
C           6.7856429833650038       2.3810622781687099      -0.9698841191217700       0.0002347192139711       0.0000141643151059      -0.0002429714212073 0 0
H           9.0397908317012519       0.6224141291502335      -7.4788273405089436      -0.0010197945814474      -0.0001534953216118       0.0020270894887533 0 0
H           7.5728412942611971       2.8494152075777133      -8.0410820395494920      -0.0004460346883024      -0.0000205017773171      -0.0015715703381920 0 0
H           8.0548577271517079       5.3293268562331813      -6.3617437538258530      -0.0007319416222733      -0.0004539086170744      -0.0009915331744432 0 0
H           6.4328380218162202       7.3802948338691676      -6.4112336568861119      -0.0010017469407499      -0.0006383055133126      -0.0012178225749739 0 0
H           0.9967419333902144       1.7483829087816576      -4.2832323804258108       0.0000945314859737      -0.0007296159372605      -0.0018223794519463 0 0
H           3.0005308642149879       1.2954595086299594      -2.5201973274501208       0.0002054723465749      -0.0003743667793471       0.0001936145651242 0 0
H           4.6731274096910962       2.6574950783884064      -0.9583141713180444      -0.0003952116464473      -0.0001275162331665       0.0003245073647502 0 0
H           6.9134450441744884       2.2320191833430241       0.0872303517731024       0.0014900563226501      -0.0004677897451875      -0.0014645557899838 0 0
S           4.6026048949547755       5.9047139730957205      -5.8877558775419780      -0.0001078957840517       0.0001672552824430      -0.0000669195447637 0 0
S         -11.7711633668288460      -0.4933474620446147       2.1427080674152545       0.0000341982076535       0.0001961486846240      -0.0000903265152163 0 0
S          -9.6327850164279401      -1.7373439619061612       4.4573780633662379      -0.0001724748267717      -0.0000414171090935       0.0000402938757106 0 0
S          -5.7954083611185903      -0.3175654785036772      -0.4677870283189332       0.0000043338795979       0.0000370947158276      -0.0001031576267028 0 0
C         -10.0882657104207176      -0.4515163690495571       1.9933787765297555       0.0001112804703601       0.0000555220980722       0.0002749849726885 0 0
C          -9.2169557170487195      -0.6788572822910679       3.1870850638772183       0.0000423324102927       0.0000341415690405       0.0000533604384525 0 0
C          -8.2084224612260268      -1.3818286896722689       5.3124293668750449      -0.0000901735666563       0.0002522091225609       0.0000246607473335 0 0
C          -7.4607499645453315      -0.4190285719368267       4.7478255021562541       0.0000990189464363      -0.0000629051963524      -0.0000096602364969 0 0
C          -8.0023731013270840       0.0103744799552124       3.4986120008271646       0.0000016598976456      -0.0003144745624438       0.0000755626372669 0 0
C          -7.4892635371594629       1.1789963714707685       2.7555275997063560      -0.0003154221336019       0.0001103508620413       0.0001653054861961 0 0
C          -7.4310107762104938       2.4467118405240025       3.3992774685294762       0.0001596770947262      -0.0002826078500628       0.0000979670811225 0 0
C          -7.1901533791358236       3.4849318209354698       2.5509639762960004       0.0000950661752538       0.0000854938339820      -0.0000431251223880 0 0
C          -7.0833741189550850       1.2322928556283708       1.4239152755626745       0.0000754419829937      -0.0002311205014765       0.0003768395771927 0 0
C          -7.1504371323912643       0.0768698082749242       0.5147151484822696       0.0003175368740100      -0.0000374905839963       0.0000557567189925 0 0
C          -6.7958557618172710      -1.3680545854484447      -1.3385286032236785      -0.0003304897167623       0.0000180411819625      -0.0000819189828763 0 0
C          -8.0688376421669705      -1.4882806940172488      -0.9062602981739505      -0.0001730858501185      -0.0002713126751936       0.0004490098976089 0 0
C          -8.3166624476664328      -0.5758265987742599       0.2013680955638935      -0.0002113651323926       0.0000055827098020      -0.0000479483364683 0 0
C          -9.7090518774356891      -0.3940174091679115       0.6494109033389888      -0.0000923358688302      -0.0000154684407645       0.0000101009148940 0 0
C         -10.7963684730897675      -0.3998174972907582      -0.2710050764035969       0.0000555133123177       0.0004095506044706       0.0002683628241317 0 0
C         -11.9665236672097492      -0.4272037149817792       0.4668273014634325       0.0003466210566093      -0.0000064026492036      -0.0000452749731960 0 0
H          -8.2330535215640221      -1.7212667154889927       6.3900408055127009      -0.0016998466311276      -0.0001874522282417      -0.0003834447970706 0 0
H          -6.5033375115351602       0.0432438230827106       5.1886023817178799       0.0003532309483446      -0.0007052623985124      -0.0005330653406966 0 0
H          -7.6273463323656339       2.4634649845088514       4.4768247070075100      -0.0014795255242420       0.0001540369076684       0.0012377237510148 0 0
H          -7.2100333380527877       4.5776177499035713       2.7237526458932146       0.0002280339840948      -0.0008836941495894      -0.0015286650836737 0 0
H          -6.3452326604185671      -1.9740598806082144      -2.0371603344853462       0.0003137285625932       0.0012651534391554       0.0000914430347236 0 0
H          -8.8114154761715149      -2.1952733094183063      -1.3130409216048793       0.0012924728939349       0.0004140114956268       0.0001937128738722 0 0
H         -10.7011455704466822      -0.4177826335451223      -1.2864605371590907      -0.0016653568873425      -0.0000102496183063       0.0004167389076767 0 0
H         -12.9325183667014656      -0.4238939889285397       0.0633357122640599      -0.0008243378731186      -0.0000017577654598       0.0003756984734256 0 0
S          -6.9005224755178771       2.8811938626020757       0.9999035016919212       0.0003308217025717      -0.0001474966307223       0.0001458143575989 0 0
S          -2.0580465941824895      -4.9602185508019394      -8.3508723595312055      -0.0000734467741245       0.0000166219548286      -0.0000552828242020 0 0
S          -0.2096737514807855      -5.2394949397443016      -5.6612384662197650       0.0002144836500094      -0.0001692142337763       0.0000038920848734 0 0
S           4.0940380209290801      -3.6877994986839635      -9.9714480468656514       0.0000823955884616       0.0001212086549002       0.0001033934957114 0 0
C          -0.4087567234802828      -4.4861653131583514      -8.3122522751191141      -0.0001180243111374       0.0000128073109616       0.0000090707833954 0 0
C           0.1430212738480547      -4.1951572637395103      -6.9865992821208902       0.0000487070253431       0.0000339210268153       0.0000934924505132 0 0
C           0.8648430195970871      -4.4269934034080221      -4.6689529541984145      -0.0001840338661955      -0.0003823605322879       0.0002981419788761 0 0
C           1.3630507970055254      -3.3086589256524865      -5.2456154225178633       0.0002108609149046       0.0001517087075722      -0.0001949990896776 0 0
C           1.0495794811520129      -3.1441343651330009      -6.6242691353554779       0.0001487694084645       0.0000869596860873       0.0001016123032073 0 0
C           1.5664227096750818      -2.0613282189964734      -7.4243640021367678      -0.0002999085691758      -0.0000551988836549       0.0001585292018701 0 0
C           1.6449197079838993      -0.6687657538718372      -6.9952207353401468       0.0001791709860553       0.0000089088722088       0.0000779457024697 0 0
C           2.2228386967092599       0.1487717908452613      -7.8739760302162392       0.0000893060405740      -0.0002442264139199      -0.0002241733598192 0 0
C           2.1734001776549259      -2.1896908785726916      -8.6996868226100421       0.0000780093764508       0.0001417919531698       0.0002431343123787 0 0
C           2.4672241193092361      -3.3957645006422874      -9.4436196900141365       0.0000222784947695       0.0000524636335039       0.0003551955262018 0 0
C           3.6912287945251774      -5.1746690617224838     -10.6411940409732608      -0.0000745471985902       0.0004939080121220      -0.0001899338554890 0 0
C           2.3942378963968949      -5.4925979252084289     -10.5120464953834780       0.0004490938092379      -0.0002963664646811       0.0005047809320962 0 0
C           1.6286308624132135      -4.4776376650275260      -9.8236429340754636      -0.0002392855161321      -0.0001935073802764      -0.0001965451944159 0 0
C           0.1855665449017531      -4.6598015799717070      -9.5497749230881404      -0.0001072699523814      -0.0002416901546191      -0.0000312139809087 0 0
C          -0.7133839251103599      -5.1434910208043805     -10.5830237879236666      -0.0002252143566619      -0.0000236715034875      -0.0000108635597203 0 0
C          -1.9263119715355215      -5.4148276453402939      -9.9814542425440251       0.0001811141760440      -0.0001842422996174       0.0000301096900037 0 0
H           1.1093569742811924      -4.8028522943264100      -3.6537735070884532      -0.0010615909312592      -0.0003993861122642      -0.0020648238813844 0 0
H           1.8859847424572265      -2.6177204715432856      -4.7477030082439100      -0.0002350376235846      -0.0013721542962371      -0.0000130750053889 0 0
H           1.0991193618816217      -0.4523135121855517      -6.0251555110100785      -0.0008266114168923      -0.0005595029625233      -0.0004727186454221 0 0
H           2.3995579518220951       1.2676250705290590      -7.7319145108584015      -0.0006253566008194       0.0018521841769186      -0.0013243185471651 0 0
H           4.4569305175126352      -5.8308331616947964     -11.1509895213853980      -0.0008696014051039       0.0013331262684530      -0.0005576895505776 0 0
H           2.0277226110004691      -6.3734722203787655     -10.8812597323467966       0.0021428750749536       0.0000157739185787      -0.0006962727311741 0 0
H          -0.3506596542086193      -5.3501031564533736     -11.5763972101286239      -0.0005624257926201      -0.0013562533625499      -0.0006483586955482 0 0
H          -2.9307240829772532      -5.8533372420015146     -10.4455454323082275       0.0011869371146331       0.0001230852414415       0.0003864016379981 0 0
S           2.7375276997263760      -0.6913815404216598      -9.2425858687551550      -0.0002736555616245       0.0000805626525666       0.0000229332987707 0 0
S          -3.6518156303708982      -3.3169072348684736      -5.7233078134932374       0.0000780934952438       0.0001540234076743      -0.0000948600908292 0 0
S          -5.7831444277463557      -4.5468388674163762      -8.1679743303917807       0.0001242867360196       0.0000879502607912      -0.0001674277978200 0 0
S          -9.5895474988026521      -3.5823262915541374      -2.9761061416400678      -0.0000034984781926       0.0001874266079934       0.0001395948237933 0 0
C          -5.3933835709954083      -3.5348437647412552      -5.5928936802639102      -0.0000570630500215      -0.0001053274968154      -0.0001607504598636 0 0
C          -6.1696706755045643      -3.5605136910789659      -6.8154639289227257       0.0001003684932414       0.0001904628213602       0.0000264242464337 0 0
C          -6.9064065724288568      -3.7067562333647479      -9.1193619185117107      -0.0001787968791375       0.0001500766950664      -0.0002614121016985 0 0
C          -7.6293335230903496      -2.7642581733526792      -8.4514973672583089      -0.0000155668390065       0.0003964066843554      -0.0003617328967193 0 0
C          -7.3031170731753550      -2.7713359919765637      -7.0605778551526326       0.0002231474721956       0.0000587915650077      -0.0000206751068332 0 0
C          -7.8838368291388470      -1.7707117297859540      -6.1541943820190337      -0.0003943216348798       0.0000741598803164      -0.0000359365621910 0 0
C          -7.8429093002836234      -0.4024660062048185      -6.5671823417559674      -0.0000886677585455       0.0000759886398520       0.0002566323720748 0 0
C          -8.2141083234719510       0.4196462322182304      -5.5123556024281672      -0.0002330311905265      -0.0002528945077005       0.0001401211551153 0 0
C          -8.2265909154913039      -1.8761506628309805      -4.8166628295830840      -0.0000044228976111       0.0001846152754697       0.0004800019163612 0 0
C          -8.2175987627446894      -3.0646418947381031      -3.9285123451604007       0.0001404439377021      -0.0001400032514245      -0.0000876988792972 0 0
C          -8.7473722708269115      -4.9976287185897821      -2.4685261031371786      -0.0000022233879305       0.0003309624139490       0.0002234091845765 0 0
C          -7.4467636139116564      -5.0550205395028183      -2.8552074185212573      -0.0001161734082264       0.0001145639323897      -0.0002727215053314 0 0
C          -7.1177238506718448      -3.8939260060388605      -3.6668597364676234      -0.0000566236704273      -0.0004230955692236      -0.0003086495767013 0 0
C          -5.7823073421228921      -3.7571325580367159      -4.2650071922337567       0.0000674612853788       0.0003013898519167       0.0002366605628298 0 0
C          -4.6495651500207034      -3.9461903234777931      -3.4693255456861007      -0.0002728806962290       0.0004240706738891      -0.0000534940542924 0 0
C          -3.4659784357807446      -3.8116580923135053      -4.1212486845100500      -0.0000271045627039       0.0000196569413573      -0.0003055596671872 0 0
H          -7.0787881277246196      -3.9220658703189382     -10.0872879349998801       0.0003744366202018       0.0006694900901910       0.0005622639508842 0 0
H          -8.3084477740875151      -2.0588854639435619      -8.8793525800381516       0.0006635901587080      -0.0010820345408778      -0.0007434756505740 0 0
H          -7.5211448017966154       0.0273758170774923      -7.5517110441289672      -0.0004405636658796       0.0005264689839386       0.0002474952871387 0 0
H          -8.3081732356996998       1.5391172783647495      -5.5595859250133364      -0.0008458139083404      -0.0000632868443336       0.0015966962395671 0 0
H          -9.2080627446097498      -5.6309483895418895      -1.7359365830221334      -0.0011512871824156      -0.0006114326184438       0.0010030112625231 0 0
H          -6.7300882083907787      -5.8300182963218194      -2.4819970943265384       0.0010964104550356      -0.0016870913473085       0.0002402240470422 0 0
H          -4.7809340688390876      -4.0025007340522345      -2.3961050529782058      -0.0006344898441829      -0.0001457798927399      -0.0010605202870337 0 0
H          -2.4339947077144832      -3.7648882344907819      -3.5919825035681789      -0.0003984213845140       0.0003925636647887      -0.0020399275466854 0 0
S          -8.5850690094706099      -0.3364368355216307      -4.0596148211402925      -0.0004922359313666      -0.0000857597334068       0.0002152815717493 0 0
S           6.3548846337987541      -2.3122905273949659      -0.2436952037957442      -0.0000810820985270      -0.0002397108114712      -0.0001575281271091 0 0
S           7.7969612595115638      -3.1343474982491144       2.8162954242975990      -0.0001269852959117      -0.0000376605628867       0.0001353600667412 0 0
S          11.8752108585520944       1.1813817861674241      -0.2636990385257893       0.0000101833720341       0.0000186273619354      -0.0000403651864297 0 0
C           7.9553604516602139      -1.7255648236523098       0.3279191239000719      -0.0001084352388472       0.0000418867724997      -0.0000120406284872 0 0
C           8.2544177284901448      -1.7739757967661165       1.7588464847144620      -0.0000412749929783      -0.0000788586710129       0.0001821528339380 0 0
C           8.3900412325195273      -2.3404921882104870       4.1640726051360115       0.0002002183570025       0.0000783169974228      -0.0002410389716535 0 0
C           8.8769642114657579      -1.1118167177926765       3.9037145707357261       0.0001407393658272       0.0001009957006037       0.0002834801031167 0 0
C           8.7788305071383288      -0.7092393648052701       2.5359639064676451      -0.0002727061216512       0.0004010849496934       0.0001807840930453 0 0
C           8.8721498732768733       0.6826447016204601       2.0674202205383847       0.0001592401261152      -0.0000545613214578      -0.0001240437654009 0 0
C           8.3342054039554103       1.8262265252445917       2.7393010236637378      -0.0001139337618481      -0.0001003603072787       0.0001538501539093 0 0
C           8.4578727884430212       3.0254818391501943       2.0971270863776161       0.0001328295134401       0.0001034426621836      -0.0000202129933623 0 0
C           9.4732887698484340       1.1589046287326894       0.9350013053108605       0.0001161597031705      -0.0001906372715647       0.0004233954041414 0 0
C          10.3821835289856210       0.4867584986256034       0.0266344725238381       0.0000888457300004      -0.0000604958142673       0.0001539594105362 0 0
C          12.1483792425191481       0.0062672825330685      -1.4504034423823124      -0.0003712458745517      -0.0001735638725501       0.0001916712086412 0 0
C          11.1471196202941680      -0.9371175199768789      -1.6109392846845394      -0.0001524173971664      -0.0000239946296158       0.0003340260234957 0 0
C          10.0823920123858226      -0.6683183500482537      -0.6462272312162851      -0.0000317949679671       0.0003055901989386       0.0001646195114998 0 0
C           8.7374045534780489      -1.2246492405069473      -0.6888939219105722       0.0001026818497883      -0.0001440718027710      -0.0000799180822607 0 0
C           8.0513961486397889      -1.3735243958789436      -1.9465539754637267      -0.0001643791569395       0.0001761573388232       0.0002098638969121 0 0
C           6.8122790089270993      -1.9351877026206608      -1.7615524361767956       0.0001571880465979      -0.0000519276742108      -0.0000068168640485 0 0
H           8.5198793733164102      -2.8658027711819760       5.0919132901260404      -0.0003633835486893      -0.0020711411166651       0.0014808088249665 0 0
H           9.2393503812100590      -0.4312282384730645       4.6806774285088197      -0.0002265312685616      -0.0013857270141056      -0.0012337159922026 0 0
H           7.8596280462400561       1.7129305145738731       3.6267461308636193      -0.0007376639716929       0.0000682629345050      -0.0007255490588056 0 0
H           7.8887541620367898       3.8841628520190854       2.3880345085915193      -0.0002394436218234       0.0008103330553272       0.0000975194758963 0 0
H          13.0685259539014176       0.0587059694313002      -1.8716511184477707      -0.0001893314139191       0.0005873939841032      -0.0001559491127718 0 0
H          11.2270962995485242      -1.7040928884179940      -2.3233336382321546       0.0017549969669672      -0.0013835165351325      -0.0022360844733167 0 0
H           8.5794476790851633      -0.9914988739604548      -2.8488780223065944      -0.0004623346501515       0.0005747406927089      -0.0002997244158333 0 0
H           6.1772129104366371      -2.1866652298314073      -2.5204701450952500       0.0012930968494664       0.0003184790869109       0.0012234433064269 0 0
S           9.3579420390416228       2.8440323807647530       0.6387711068074244      -0.0001459869654783      -0.0001162283609968       0.0000061256192067 0 0
S          -2.4738158214436283       1.4460363087312318       8.1603533305191984       0.0000553993959738       0.0000589255173023       0.0000472129240954 0 0
S          -3.1933448251976606       0.2602201204058023       4.8725447008279685       0.0000154688104103      -0.0000439575886365      -0.0000035931065720 0 0
S          -8.8250524745198824       2.4168630416754420       6.9339024026358711      -0.0000944489918515      -0.0000406886858274      -0.0000282491212944 0 0
C          -3.9740154520183992       1.5657798453145459       7.2067135158134050       0.0001848315604660      -0.0001212627745771       0.0001858377750403 0 0
C          -4.0544120432069315       1.4526777686021959       5.7199055917042738      -0.0002800573465535      -0.0001853330605754       0.0001068119720734 0 0
C          -3.6666738824820229       0.8975995413390946       3.3773132758044735       0.0000890473680284      -0.0001305824484953       0.0000874409824411 0 0
C          -4.5177654708666983       1.9355386459735047       3.4728760122437849       0.0003636308786302      -0.0004244057326554      -0.0000882274663870 0 0
C          -4.6462423752287147       2.3873563963133617       4.8707094106755937      -0.0000962243338298      -0.0001709315764357       0.0000817753895102 0 0
C          -5.3785051339340084       3.6191898922638095       5.3144006406289774       0.0000778368187257       0.0000375153779669       0.0001080836909016 0 0
C          -5.0894998861833454       4.9533136701266827       4.8723419182454428       0.0002848192852890       0.0001970722847499       0.0005155452816142 0 0
C          -5.9552464353660923       5.8509001957014917       5.3869464212283749       0.0001306780919137       0.0000432627249030      -0.0000078009987819 0 0
C          -6.4572582022278722       3.6108415993610392       6.1417436298293495       0.0002086108548002       0.0001123186517196       0.0001515242440301 0 0
C          -7.1198685340693686       2.5226896961247220       6.8339055632992300      -0.0002315610296651       0.0000500480509418       0.0000184483997665 0 0
C          -8.7214205181724083       1.1784164031829296       8.1178438613758797      -0.0001574747776818       0.0000872302932921       0.0000432322062170 0 0
C          -7.4421824016288918       0.8817772440633226       8.4139559500578702       0.0000693777109713       0.0002103645330883       0.0001395571119694 0 0
C          -6.5150671431744822       1.6803430984576810       7.7296560158326120       0.0000644645049154      -0.0000148447457241       0.0001951123153091 0 0
C          -5.0509620187196287       1.6628622291804722       8.0730750367789064       0.0000581489646418      -0.0001400863160037       0.0000698011424611 0 0
C          -4.6579723145445753       1.4819987468895808       9.4789447998040970       0.0000273153252951       0.0004963749377293      -0.0001333284516210 0 0
C          -3.3306334223935985       1.5182814899772057       9.6234580233131233      -0.0004395832324335       0.0000367452659399       0.0001723352173112 0 0
H          -3.3442352226076015       0.2901367516855078       2.4073582946666772      -0.0005661829195097       0.0014281042231156       0.0020031491145548 0 0
H          -4.9277779530504704       2.5837322169970309       2.6748802035622878      -0.0010831131015480      -0.0006392209545454      -0.0007070844959172 0 0
H          -4.2494042476809071       5.2885482036108575       4.3090555079673969       0.0001409160410636       0.0002509502103405      -0.0001837244115349 0 0
H          -5.8871271018411395       7.0286383429112789       5.1932693735850899      -0.0004847245417736       0.0002296701836803      -0.0005260796037721 0 0
H          -9.5922985888321488       0.6631276605486760       8.5688068248823726       0.0000074468603731      -0.0015078985477723      -0.0004384224258705 0 0
H          -7.1023433909708702       0.1167527853678232       9.1553971386925870       0.0010271267816858      -0.0008851865250566      -0.0005163124223203 0 0
H          -5.3596418810069801       1.4327645840680612      10.3660537243124278       0.0006796045746568       0.0011517361542671       0.0009653189646548 0 0
H          -2.8546356148813157       1.5379296902320154      10.6611783867241119       0.0012275124137159      -0.0004691217953595       0.0011532474690487 0 0
S          -7.1576107349464326       5.1995881899233929       6.3768412976477791       0.0000591114150445       0.0000465475919187      -0.0001791565899038 0 0
S          11.0986571316387099      -2.1823292270613539      -7.0440901709652399       0.0002637690747796       0.0000857416721204       0.0002670928821109 0 0
S           8.9868883289747057      -2.1367261982956780      -9.6186556718601768       0.0001668771889888       0.0001087945384931      -0.0001515312814168 0 0
S           5.3808011303231869      -4.0936365119576257      -4.0881447250644412      -0.0000316952673115      -0.0002211677548672       0.0000057719590777 0 0
C           9.3532449588940114      -2.5027346785077853      -6.9194224147955916       0.0003317416513834      -0.0000778204264112       0.0002224829197277 0 0
C           8.4172950542302232      -2.1675494043256283      -8.0027689748089372       0.0002429854508576       0.0001868286698212       0.0001789882413958 0 0
C           7.4677150267667090      -1.6079823079530557     -10.2088485823740402       0.0003200083228708      -0.0002033749101394       0.0001740202235155 0 0
C           6.5868526476578921      -1.4642093524185178      -9.1885401457602480       0.0001783881749530       0.0000332509213470      -0.0003371122667222 0 0
C           7.0995405586608893      -1.7235025941180062      -7.9115071387558169       0.0003193189019806       0.0002274137597105       0.0000576795871876 0 0
C           6.3145833131904707      -1.2732826013547112      -6.7814821735876789      -0.0002553253165613       0.0000272462822471      -0.0002624992485755 0 0
C           5.5862493346282465      -0.0268627813614171      -6.9340462104767147       0.0005304562941053      -0.0000903639975935       0.0002658483481999 0 0
C           4.9102599766409609       0.2444493363275231      -5.8236293837187372       0.0002742351117401      -0.0000084387044021       0.0000732279858670 0 0
C           6.0243385964810514      -1.8470198033954364      -5.5647004362393702      -0.0003383698413286       0.0000534526727419       0.0001062254530923 0 0
C           6.5034962561048069      -3.0747488455413534      -4.9727540088060316      -0.0000935699010518       0.0001499002822793      -0.0001940891264841 0 0
C           6.5276150345192905      -5.3436933869187087      -3.9889915003268634      -0.0000478552305148       0.0002497326939221      -0.0000051196338221 0 0
C           7.7010427223833142      -4.9902309469717183      -4.5333013122352241       0.0000347839038353       0.0000841080293440       0.0002431241402724 0 0
C           7.7376975485843476      -3.6665955323558879      -5.0953100385958292      -0.0001083032454855       0.0001974889129430      -0.0000554672582408 0 0
C           8.9670863913027699      -3.1258613342564883      -5.7063855733449289      -0.0001034544283736       0.0001798359312876       0.0001108064232009 0 0
C          10.1949892108278775      -3.2562570450165480      -4.9507716850080490       0.0000756735388215      -0.0001248956913291       0.0003870423778353 0 0
C          11.3568074768961544      -2.8301525375948167      -5.4630673837075703      -0.0001514694109656      -0.0002767194122916      -0.0003096475914621 0 0
H           7.2717191737234632      -1.3952324315776812     -11.1849416848930154      -0.0000851128616065       0.0005248558121445      -0.0004059222331733 0 0
H           5.5957201756174584      -1.1414151650917701      -9.3855305910355611      -0.0007089018475099       0.0011391939439535      -0.0006648062754748 0 0
H           5.4513402850210078       0.5124515707368761      -7.8909475255089081       0.0008747127748514       0.0002223566356441      -0.0005745086757024 0 0
H           4.3097254041306066       1.1603388727544661      -5.7904727933639073      -0.0006725647141968       0.0022310820574464       0.0004648935108956 0 0
H           6.2708337783987647      -6.2153393391678975      -3.4497367423641352      -0.0001096776228630      -0.0003484000866956       0.0003807104923658 0 0
H           8.6313024163169381      -5.6484516062163284      -4.4853175513332406      -0.0009028159347298       0.0001350856409323      -0.0013620016719286 0 0
H          10.0705161415021838      -3.6569134051561529      -3.9039172510251747      -0.0004706702365983      -0.0002957150009459      -0.0004581845025058 0 0
H          12.3786389243937816      -2.6779131320365588      -5.0214591477156620       0.0003446561383933      -0.0004160408321327      -0.0010539361459912 0 0
S           4.9727186216928425      -0.8672187980984880      -4.5700478608506430       0.0001457482526491       0.0000148350688898       0.0000810456983190 0 0
S          -3.2644136549884322      -6.7637077893782509       5.7786326210075201      -0.0000669951816215       0.0000047604419036      -0.0003553745797388 0 0
S          -4.5046645925658719      -4.7923743151783258       2.9516355153047549       0.0001329136312064      -0.0000605013859178      -0.0000672677858754 0 0
S          -9.0085400315862998      -4.3021584919834526       7.5021557952950406       0.0001223585561750       0.0002036942211857       0.0002040056517131 0 0
C          -4.7940754325159016      -6.0137611495669638       5.4634152027270870       0.0002644800107946       0.0000422273685320       0.0001653127073942 0 0
C          -4.8539418490203552      -4.8000270427325935       4.6184624078204743       0.0001392392543354      -0.0000714826824117       0.0000551578658202 0 0
C          -4.7340560344441114      -3.1006796879322902       2.8525753156062983       0.0000114135106764      -0.0003868425917604      -0.0002351122831604 0 0
C          -5.0838946825127174      -2.5878115866744884       4.0617784148692593      -0.0000607701503204      -0.0001304816502072      -0.0002478173100028 0 0
C          -5.0109097367463287      -3.5168103068572667       5.1230362816327020      -0.0000762594060737      -0.0001362404303355       0.0000224596845747 0 0
C          -5.2004166324342176      -3.2369995768690685       6.5504360976603895       0.0000596520079648      -0.0000282254296745      -0.0001030146374694 0 0
C          -4.2705530558906810      -2.3116028219139548       7.2147574593134403      -0.0001188569421810      -0.0005103510908966      -0.0001165754651872 0 0
C          -4.5508953168367263      -2.1920781762821835       8.5572714755949608       0.0001540943001580      -0.0001524534293316       0.0000094548442083 0 0
C          -6.1873558385829988      -3.5499745858605976       7.3995897336682201      -0.0000028652463574       0.0000584803769939      -0.0000554975466740 0 0
C          -7.2690048393463629      -4.5308894684588763       7.0984066365607497       0.0001544380783245       0.0002684946589174       0.0001126592656145 0 0
C          -9.3133553111538863      -5.9716623436000704       7.2956237403318216       0.0002553992925535      -0.0000539479008703       0.0000819662610269 0 0
C          -8.2843292617798348      -6.6663356588293423       6.7718162083689215       0.0000316973862874       0.0002661111582239       0.0000265033936445 0 0
C          -7.0807206988034288      -5.8521407723032581       6.6551193254053675      -0.0000179640328143       0.0001579284520945       0.0001092800844776 0 0
C          -5.7973045282575120      -6.4540740523030786       6.3133199396906505       0.0000283837242113      -0.0000690778544588      -0.0003606169176428 0 0
C          -5.4146154068044003      -7.6610539494256882       6.9827881964602616       0.0000601250047155       0.0000005848549089       0.0001286224318860 0 0
C          -4.1148392309804658      -7.9142004564891772       6.7688654405452562      -0.0000487316307583      -0.0002059277539430      -0.0005184428328671 0 0
H          -4.8620981013338191      -2.6991398112462162       1.8928124402642943      -0.0004276575280399      -0.0007129205488729      -0.0004256356136908 0 0
H          -5.2213765565188348      -1.4891307703563634       4.2956629796635779      -0.0001599107644186      -0.0001060046919135       0.0000750909521146 0 0
H          -3.3684476683419100      -1.8249522796682451       6.7355188300565301      -0.0006462804361625       0.0006230057422615       0.0009184205242658 0 0
H          -4.0537147333300743      -1.4309945111530233       9.2733944265340380      -0.0008489404603674      -0.0002037859891505       0.0010596100630956 0 0
H         -10.2699016752414494      -6.5006206480742081       7.5055483232728601      -0.0006446937419085       0.0005951097221534      -0.0005680530104136 0 0
H          -8.2555739652471498      -7.7150994077795252       6.5159398460909772      -0.0005504995603134      -0.0010844991104628      -0.0005705323453854 0 0
H          -6.0069539249824002      -8.2542403404416085       7.7271248565232922      -0.0001339331483118      -0.0007883773996421      -0.0018778105696380 0 0
H          -3.4946256613733966      -8.6057196424284985       7.3215791885755701       0.0009413415595859       0.0008110043221951      -0.0011320641127785 0 0
S          -5.9540983589194862      -2.9378717189550345       9.0583089009515341      -0.0001420395929836      -0.0000427334979617       0.0000578067803898 0 0
S         -10.1658148840001630      -9.4613524227841452      -0.2839171352250403       0.0001090324585364       0.0000209006559715      -0.0001460457322809 0 0
S          -7.9715808433535127     -10.0994176917226266       2.5946967886313237       0.0000217922880249      -0.0002712828988369      -0.0001476417846141 0 0
S          -4.3666238690757568      -6.8116737112897061      -0.7212674826287262       0.0000639575632983      -0.0000116613512184      -0.0000169057714768 0 0
C          -8.6210356697690287      -8.7754018602596631       0.1104719380511495       0.0001077645325566       0.0000773345009485       0.0000320655634002 0 0
C          -8.1344398847559685      -8.7147972663107165       1.5122100156332594       0.0001158474261455      -0.0000720637696802       0.0000305233677003 0 0
C          -7.3802525550563960      -9.1172207687949882       3.8658693480345612      -0.0001212690254309      -0.0002265905106782       0.0003862785017665 0 0
C          -7.2421843124136895      -7.8209111401150277       3.4442712361785355       0.0000051810379052       0.0000119596280989       0.0002021389941778 0 0
C          -7.6452018160901316      -7.5944824123229724       2.1106832433702474       0.0000977757762405      -0.0002076728330928       0.0002246970465497 0 0
C          -7.5332281946134554      -6.2808642876149818       1.4420068236331278      -0.0001656452194068       0.0000095760017280       0.0001646837350431 0 0
C          -7.8528627912498399      -5.0988551923596068       2.1745763160255915      -0.0003448653098035      -0.0002544669370958       0.0000759848115861 0 0
C          -7.5243281947473148      -3.9339592279857780       1.5198759530379047      -0.0002626019015546      -0.0000578089041796       0.0001837351607446 0 0
C          -6.8627935729162868      -5.9734618188828303       0.2836881073121177      -0.0000484204291663       0.0001027651505116       0.0000917103417478 0 0
C          -6.1030327736493781      -6.8758005759968732      -0.5555054836758632      -0.0002147578908085      -0.0000437844103848       0.0001179186642264 0 0
C          -4.2815443765502250      -8.2587214050757769      -1.6000480925524880      -0.0000801168014273       0.0001198931632054      -0.0000248379559307 0 0
C          -5.5148482395376401      -8.7481524555871371      -1.8041964391626117      -0.0000656367203658       0.0000207232346945      -0.0002420261528924 0 0
C          -6.5583665413928225      -8.0062273148530423      -1.1902919373994443       0.0000223052574203       0.0004071319047016       0.0001381322387699 0 0
C          -7.9718538800904932      -8.5264827309605842      -1.0822148688895563       0.0002274670882995      -0.0000245151763693       0.0000274259238773 0 0
C          -8.7824566887362696      -8.7921898582294915      -2.2663310115506548      -0.0001449861391534      -0.0000922194711078       0.0001245562698466 0 0
C          -9.9214399523296333      -9.4117519858434431      -2.0017307087789016       0.0000549557227218      -0.0002127755715950       0.0001824240256872 0 0
H          -7.1066353195968768      -9.4679095487663236       4.7841986528265030      -0.0006319297585800       0.0005652367806738      -0.0005001401594364 0 0
H          -6.6933458454812245      -7.1159768375669401       4.0117909814720960      -0.0006352718380174      -0.0005792634223180      -0.0004058385266587 0 0
H          -8.3694592628303734      -5.0885243011741927       3.2566881298640897      -0.0010311878221271      -0.0002733639883264       0.0008134886165135 0 0
H          -7.6082883227484670      -2.9490170006049143       1.8295758642417341       0.0000245273253501      -0.0000184191747205      -0.0000206820678982 0 0
H          -3.4471852727667209      -8.8092941429391232      -2.0006923289405729      -0.0005885834400559       0.0002319107163526       0.0011306193642134 0 0
H          -5.7198220274162042      -9.7314654323200145      -2.2421538888568668      -0.0000143413016478      -0.0015428996654217       0.0002366480178017 0 0
H          -8.3282197046458410      -8.7032373956054467      -3.2640612852958992       0.0004773573131184       0.0002994960233374      -0.0009120198491855 0 0
H         -10.5865367021678747      -9.9186194034967237      -2.8108418971330904       0.0010152100312637       0.0002388515239336       0.0006273241068706 0 0
S          -6.9645701452942745      -4.2437654620814964      -0.0565473815531792      -0.0000982896382971       0.0000196291987105      -0.0001039043446366 0 0
S          -7.6872740030656130       0.5618259349485485     -10.1827152618208174      -0.0001191838438652       0.0000857563727836       0.0000344939862028 0 0
S          -6.7586009096846045       2.5439298903632510      -7.6381713956821935      -0.0000886572299668      -0.0001084304844557       0.0000812028566049 0 0
S          -1.1808660768381356       0.3368889621721151      -9.2911416431979728       0.0001391714969416       0.0001183503579455      -0.0001323281202668 0 0
C          -6.0553295387867871       0.9915550358014489      -9.8098624448905021      -0.0001356203355997       0.0000248388997606      -0.0001160424852362 0 0
C          -5.8812600276862002       2.2285181603022504      -9.1378998504888962       0.0002278414485550      -0.0001791959158748       0.0000464498197461 0 0
C          -6.5088499836219054       4.2102527838579835      -7.8415518545378582      -0.0001412118519389      -0.0000261541830815       0.0002167769511381 0 0
C          -5.5730433904851768       4.4923256812192474      -8.8082756417374828       0.0005756049531589       0.0000507589925929      -0.0000030808380005 0 0
C          -5.1006439118009785       3.3377333333282615      -9.4869067102024012      -0.0000310254420037       0.0000142213038337       0.0001162824462290 0 0
C          -3.8051352307576143       3.3663936767920730     -10.1915457358526282       0.0000864247724000       0.0000096921250552       0.0000778862931304 0 0
C          -3.4700422909855551       4.5529543153480674     -10.9715224060903047       0.0002354760101296       0.0000955619090351       0.0002017101441907 0 0
C          -2.1837671428076870       4.5512206716048622     -11.3782516495019728       0.0000903827583737      -0.0001519341552227       0.0003611029378096 0 0
C          -2.8290345734580096       2.3646570404176068     -10.2935061680401532      -0.0001143976323234       0.0001753987953461       0.0002320249013507 0 0
C          -2.7706303171893656       0.9314891509381407      -9.8807983488368851       0.0002458050645459       0.0001148643841610      -0.0001171339187230 0 0
C          -1.7588738639822117      -1.1956482268218733      -8.9448278334025222      -0.0001158100777157       0.0001568824616686      -0.0002959101989911 0 0
C          -3.1200113061483146      -1.2004810781798909      -9.1552870588955315       0.0001663957668246       0.0001256639045754       0.0000490176243685 0 0
C          -3.7114501351859106      -0.0375391533992499      -9.7135811703637014       0.0000980451895021      -0.0000880801594437      -0.0000810637996747 0 0
C          -5.1863849661829882      -0.0023683988876900     -10.1336192092187058       0.0001236246716664      -0.0000133015242797       0.0002445187098112 0 0
C          -5.8395628843021132      -1.1215552101239072     -10.7835602144170082      -0.0003440278439815      -0.0000823128894686      -0.0000775292702612 0 0
C          -7.1921778649581976      -0.9520209457620264     -10.7765300623059908       0.0000731450074274       0.0002039329780159       0.0003164825192946 0 0
H          -7.0395778645634692       4.9975129549398600      -7.2550302319276776      -0.0015835185303055       0.0021139788734992       0.0014377331005752 0 0
H          -5.1969766636470265       5.4355780759739938      -9.0688820079132952       0.0002147596914015       0.0016050013697267       0.0001966064954182 0 0
H          -4.1491781337077365       5.3497832598272010     -11.1926779170605304       0.0004691641383188       0.0007003981761963       0.0010548371117580 0 0
H          -1.6611536528011861       5.3674297383218965     -11.9083241621537788       0.0006275514741163       0.0010759778367077      -0.0001749013584028 0 0
H          -1.2151804126664694      -2.1011520551833343      -8.6278824411473494       0.0004823762262153      -0.0014397385139791      -0.0012752129170984 0 0
H          -3.7092046213380669      -2.1192212594514497      -9.1861266406812199      -0.0005248270447512      -0.0004409187415709      -0.0001168550900043 0 0
H          -5.3950517746477118      -2.0551008831595121     -11.0636695127608462       0.0016529585778964      -0.0026792297658621      -0.0008076706061216 0 0
H          -7.9245897075946061      -1.7283442904695692     -11.1337674939835498      -0.0006204419630238      -0.0003874770507088      -0.0009697771837155 0 0
S          -1.3899480663674968       3.0144504058903450     -10.9885503908370978      -0.0000482042788699      -0.0002953457487276      -0.0001638271591005 0 0
S           6.2829489996364716      -9.9156600895864457       2.2116268262476804      -0.0000652283884304      -0.0000580072885412      -0.0001466301756755 0 0
S           4.0989742526647142     -12.2530908457453176       0.0796327245319779      -0.0000782404566317      -0.0000486694290374      -0.0000526843057665 0 0
S           0.2351250669075778     -10.8449224907210162       3.6764495862815467      -0.0001168458645801       0.0002173493552553       0.0000821446501830 0 0
C           4.6854213731323560     -10.6946465831402548       2.2902472769964297      -0.0000698559996532      -0.0000316788710586       0.0000141681453844 0 0
C           3.8836161559352216     -10.9411098856833142       1.1134845973192966       0.0000505627186597      -0.0002634011142374       0.0001769212466716 0 0
C           2.6527026061231633     -11.7908784869704295      -0.7952456861263406       0.0001273620700692      -0.0000869193155319       0.0003977188715266 0 0
C           2.1853454493717694     -10.5492776122558851      -0.5096590497935820      -0.0003404213973879      -0.0002265915683496      -0.0001945656132685 0 0
C           2.9024290967970776     -10.0881042707354478       0.6519299144835323       0.0000412004715120      -0.0000038274302334       0.0002800850165239 0 0
C           2.4790516534462865      -8.8731989441982186       1.3924132245718903       0.0000587774528813       0.0001116711232508      -0.0001615207462602 0 0
C           2.6209737100857398      -7.5167603582262839       1.0154059201930938      -0.0002447618886331      -0.0000463068284973      -0.0000524322755128 0 0
C           2.5221020368407681      -6.6495692122223291       2.0914976380871431      -0.0002562386825421      -0.0000911508596726      -0.0002987437842926 0 0
C           2.1197857117070140      -8.9756243886091038       2.7279583074338589      -0.0001232366680196       0.0000283849085920      -0.0000906458513413 0 0
C           1.8290754756695788     -10.1943664901952076       3.4105875756759287       0.0000650776774170       0.0002540197865540       0.0003677145877542 0 0
C           0.8405585095636621     -12.1356961185916674       4.6087438884396956       0.0003019766343614       0.0000654198090613      -0.0002388417522547 0 0
C           2.2097354457322314     -12.1802822526628880       4.5003168782484941       0.0000936562244835      -0.0000392443462457      -0.0004695992333410 0 0
C           2.7784946699753514     -11.0820871452570309       3.8497826053371034       0.0001510325498604       0.0000523208793836       0.0000613100342775 0 0
C           4.2312268383797482     -10.7807315525986667       3.5880553071777790       0.0000874006188112      -0.0003816338689816      -0.0000909499272985 0 0
C           5.1556926525850049     -10.3263901845465007       4.5083501866551590       0.0001111437171862       0.0001967907443704       0.0003589786860837 0 0
C           6.2823942273076439      -9.7949336149156263       3.9521405137587742      -0.0001143197084479      -0.0000241760320361       0.0000172216427652 0 0
H           2.1254561528563158     -12.4988216082536461      -1.5643252227055562      -0.0002664599636951       0.0005634296182364       0.0002067401340375 0 0
H           1.3185805221178464     -10.1359927211747358      -1.0475445429615573       0.0013025978317281      -0.0007437768917356       0.0013646789573160 0 0
H           3.0318848459942069      -7.3081098294124303       0.0421010522392880      -0.0005149085567152       0.0005342691681651      -0.0010324687083846 0 0
H           2.5971764567704532      -5.6564049303946886       1.9600171056353037      -0.0003204330611845      -0.0003671082145515       0.0004430410708601 0 0
H           0.1654954775260971     -12.6990473235865409       5.2615454060766949       0.0008038306953174       0.0000625228262263      -0.0002230200785396 0 0
H           2.7436967681562767     -12.8895051951537543       5.1486172768961609       0.0002493752051876       0.0004634501805816       0.0000466040040181 0 0
H           4.8231491092374172     -10.2845531459127493       5.5774378610732249      -0.0002104593794467       0.0002425416581854      -0.0006103662814142 0 0
H           7.0737599667984918      -9.3642672545343295       4.4619744919874300       0.0017764270794472       0.0011824770850744       0.0004181262183757 0 0
S           2.0679182090102430      -7.4746853916566742       3.5603466019979426       0.0001751619195458      -0.0000221921326193       0.0000060404081374 0 0
S           7.6860969342023902       8.2125030105187751      -3.9313124050143049       0.0000287000549037       0.0000075697150383      -0.0000027079085109 0 0
S           5.7065533097574459       5.6024502157884699      -2.6068070397250538      -0.0000494074796812      -0.0001652034005624       0.0000927510282910 0 0
S          11.1324848152800531       2.9554506083324217      -2.7042723010208674       0.0000427625300990      -0.0000663575295888      -0.0000997148446998 0 0
C           8.1959924187315671       6.6229341086233520      -3.4494839221918037      -0.0000676410326458       0.0000874793586091      -0.0002623096496724 0 0
C           7.4346507415966316       5.9154331156671507      -2.4542444454570882      -0.0001961050217342       0.0001379521419748       0.0000159144897290 0 0
C           5.5933516389566416       5.5327320324135725      -0.8610663847089556       0.0002112138926023       0.0002363209745525       0.0001661319441686 0 0
C           6.7859640405360615       5.5289785840868824      -0.2358758366425683      -0.0000249268813560       0.0001439992554054       0.0000995323147113 0 0
C           7.8865287265949435       5.6470839304303873      -1.1555979851166451       0.0002543205030598       0.0001886469650083       0.0002263507672833 0 0
C           9.2672558878220510       5.7747972742817817      -0.6829733204863165      -0.0000090235064020       0.0002363021143141       0.0002728522890295 0 0
C           9.6230520702351630       6.4025912022401945       0.5784467525304124       0.0002143197665293       0.0001451174693257      -0.0001516338407564 0 0
C          10.9516235027184656       6.2276539710553314       0.9411182024963619      -0.0001188774357078      -0.0000600919812545       0.0002401042350197 0 0
C          10.3653151108733237       5.1951053221153281      -1.2982156178250974       0.0001452478215807      -0.0000086098371868       0.0002947967753824 0 0
C          10.4485136633181703       4.5262971459556676      -2.5783883935149059      -0.0001371421723326       0.0001760931377873      -0.0000122519163237 0 0
C          11.0866393435784474       2.9261051185974161      -4.4472427865343667       0.0004432744955568       0.0002630578478642       0.0002112062316437 0 0
C          10.4355048302825306       4.0299075514462359      -4.8998171990031816       0.0001815799054676       0.0003396691451443       0.0001494464994003 0 0
C          10.0553668507359184       4.9478635804914912      -3.8487636479152707      -0.0000329801905507      -0.0000467642621121       0.0001477272305880 0 0
C           9.3595412727471974       6.2358362241144292      -4.0903162279357961      -0.0001327696556518       0.0000221252040912       0.0001365367838366 0 0
C           9.7229996612691671       7.2358047165070323      -5.0411106409528061       0.0002278551264063       0.0000578260533720      -0.0001282809401013 0 0
C           8.8592979265244516       8.2515387870758357      -5.1748150067417722      -0.0000818608903657       0.0001175731811843       0.0005009403873237 0 0
H           4.6385170372968121       5.2587264442440764      -0.3843876413151897      -0.0005244399995674      -0.0003777076938541       0.0007136912600325 0 0
H           6.9586609951534273       5.3602687593338123       0.8299922096707449       0.0000965496664058       0.0005125804303378      -0.0000863258520358 0 0
H           8.9145195233272947       6.8777854859467338       1.2337259370300271       0.0006627333281579      -0.0010312040063330      -0.0002996847955738 0 0
H          11.4893908369594691       6.5476799798047551       1.8835809154251091       0.0006925615522980      -0.0003537729261954       0.0023452012286281 0 0
H          11.4568125579577558       2.1808192534683517      -4.9643317379562601      -0.0003472000657026       0.0001241113083644      -0.0004520843335398 0 0
H          10.3577881735844084       4.1696246338104670      -6.0027278008096348      -0.0005781175692549       0.0000649046515094      -0.0012620059900064 0 0
H          10.6972978182550769       7.2010122192030224      -5.6030247177371759      -0.0014961491356545       0.0004886323882541       0.0006527943280856 0 0
H           9.0384637174626619       9.1723266699266066      -5.7825044605450318      -0.0000425829165947      -0.0001635372134998       0.0010463709254148 0 0
S          11.8020777017003109       5.2859004342141604      -0.2965317528670081       0.0000247431650961       0.0001715567258715       0.0000188307077398 0 0
S           9.7675048055892404      -4.4145901692431533      -0.7122678049016095      -0.0000288691415639      -0.0001201801651016      -0.0002532651579911 0 0
S           6.3374490634242155      -5.5587247134423530      -0.4319769013972181       0.0000683025182156      -0.0000921820595847       0.0000943065141327 0 0
S           9.6555731100652444     -10.6210750780682375       1.5932476240871059       0.0000725014136575       0.0000192923339754      -0.0000290665274042 0 0
C           9.1341620875631495      -5.9968724484493299      -0.0828727624938729       0.0002153548248610       0.0001015027173528       0.0002132415344694 0 0
C           7.7685672330077100      -6.1286073447385476       0.3671535461270330       0.0000291306507471      -0.0000202986170765       0.0000597510938918 0 0
C           5.3322183335402560      -5.7559916244096101       0.9908510156329698      -0.0002356307184836      -0.0000339168978201      -0.0002242576323176 0 0
C           5.9905289860104753      -6.4697283884662999       1.9176595429063654       0.0001436339547020       0.0000270814834206       0.0003896836977280 0 0
C           7.3747028209530141      -6.6035495890174056       1.6269415406619796      -0.0004305396685950       0.0000319948138550      -0.0002644070747028 0 0
C           8.2222832205733880      -6.9821936935601965       2.7551033871378934       0.0002338527585977       0.0000172377377573       0.0000996666757644 0 0
C           8.0307405701039780      -6.4643585585770005       4.0653173162073113      -0.0000747490075952       0.0003031982266101      -0.0001332226393145 0 0
C           8.8551995108994870      -6.9787054584469264       5.0189145829347188       0.0002321053032506       0.0002924553298106       0.0000461432436733 0 0
C           9.0718183997219199      -8.0803899618642276       2.7263656491720925      -0.0002883654709821       0.0002962968758024      -0.0002611038199044 0 0
C           9.5449378003064975      -8.9117072991073822       1.6025128847220491       0.0001495897125619      -0.0003084219109144       0.0000328032184641 0 0
C           9.7500706582883083     -10.6687187302452156      -0.1413650677142657       0.0003681822340609      -0.0001529704894031       0.0002391738389226 0 0
C           9.7985722130302424      -9.4644315622185626      -0.6737299730062624       0.0001585718402537      -0.0003226319720197       0.0001576775061666 0 0
C           9.8689543304200775      -8.3994123276456030       0.3421190492252181      -0.0000853248097536      -0.0000971744766648      -0.0000734229120227 0 0
C          10.0759882577334157      -6.9671878676893204      -0.0598134544181529       0.0000975716077698       0.0000605150213561      -0.0000892751666783 0 0
C          11.2519950997194442      -6.5390294734978438      -0.7355084251411347       0.0001185349416011       0.0000337809479313       0.0001026350777234 0 0
C          11.2024435440174912      -5.2697821506156828      -1.1666638194887105       0.0002892933675452       0.0000144080234220       0.0000898828086127 0 0
H           4.2744035045775126      -5.4027674239109711       0.9286293133214665       0.0009305827425036      -0.0003311084923976       0.0006249048400707 0 0
H           5.4892518889854474      -6.9478423901988089       2.8231457989699322      -0.0001317148006835       0.0002775785181654       0.0007841220329892 0 0
H           7.3455728748911167      -5.5048744455415193       4.2740050800172620       0.0006852074452957       0.0007275360161837       0.0006066747217799 0 0
H           8.9163047844156189      -6.5229511434979601       6.0128251471112835       0.0004453017874974      -0.0000163021520165      -0.0012574689230483 0 0
H           9.7493728547708400     -11.5951187870488042      -0.7884004936398933      -0.0005713890647073       0.0003911580727252       0.0005581282216152 0 0
H           9.7546896446962386      -9.2500004920152197      -1.7401088333648478      -0.0005326958337923       0.0000258950005832      -0.0000464991952435 0 0
H          12.0765338248491307      -7.2244705771884146      -0.7910104078273459       0.0006443864094037      -0.0007390225241752      -0.0000969501632521 0 0
H          12.0157388450322120      -4.7844048768060237      -1.5841661716188611      -0.0016726177786583      -0.0007044759198619       0.0004237155418276 0 0
S           9.7666909914516769      -8.2446804346913378       4.3343976049750577      -0.0001203726243201      -0.0000568772038679       0.0000047522810694 0 0
S           7.2448675445426645      -8.1216393653090382      -2.2370488493336409       0.0001445048225148       0.0000939669590002      -0.0000543234618002 0 0
S           8.5872763220634969      -8.3864270142451716      -5.2785742136879632       0.0000373293533239       0.0000101325994186      -0.0000637068956835 0 0
S           2.2974184344647188     -10.2775971677134379      -5.9605032126267181      -0.0000432019988053       0.0001651553987552       0.0000749485346032 0 0
C           6.3787259734113091      -8.6887476052637584      -3.6679409309748330       0.0001263010860938      -0.0001052055386388       0.0000622495293301 0 0
C           6.9024783558728426      -8.3734297984068853      -5.0052262243282701      -0.0002712749106347       0.0002228995562339      -0.0003483161994394 0 0
C           8.4009863614438309      -7.9673480941737527      -6.9754998177299061      -0.0001906135195639       0.0002168434620360       0.0002036126509190 0 0
C           7.1447352085217322      -7.8016997330504143      -7.2743031930664568       0.0002005734262227       0.0002702366693792       0.0003611037383124 0 0
C           6.2018328306257455      -7.9407405682260412      -6.0992691378926542      -0.0000132758908670      -0.0001115852859113       0.0002661442642131 0 0
C           4.8494399518236389      -7.3268762072803657      -6.1286812713017262      -0.0003107036452693      -0.0000237647458963       0.0001864184814295 0 0
C           4.6459706563909222      -5.9988238792583575      -6.6267728370885282      -0.0000237454269231      -0.0000147242622032      -0.0000561772154862 0 0
C           3.4698327811314793      -5.4788346454467858      -6.3285185676624405      -0.0000941107138235      -0.0001499717769674       0.0001854105856659 0 0
C           3.7033165528297882      -7.8720820782103260      -5.6444428537704203      -0.0001496498595678       0.0001804262844682       0.0001161573832272 0 0
C           3.5215293857785253      -9.2542927136143671      -5.2545869746721694      -0.0000301541808082       0.0000474102219671       0.0001433963032036 0 0
C           2.7204079288043408     -11.6198458052317068      -4.8982583246060569      -0.0000447118394343       0.0001937370206386       0.0000059087670834 0 0
C           3.8240394490086822     -11.3075160294274433      -4.1132407696789146       0.0003454970078975      -0.0003169455789333      -0.0000421503380954 0 0
C           4.2938670189847468      -9.9529077270432449      -4.3145266656517229       0.0000958533286159      -0.0002675188324336      -0.0000867151548165 0 0
C           5.1972125159914908      -9.3328826172986474      -3.3029121546419424       0.0002272349182694       0.0000817674179902       0.0001346245818712 0 0
C           5.0234678332628881      -9.2587352633983535      -1.8831213621333229      -0.0001039403408665      -0.0002123944152974      -0.0001690983265190 0 0
C           5.9450563778040397      -8.5535430206193830      -1.1831130792147098       0.0000735360225360       0.0000258803706265      -0.0000467641229511 0 0
H           9.1610945707694533      -7.8835985144936123      -7.7567269163500079       0.0010895295597058      -0.0001775057615256      -0.0011530995989312 0 0
H           6.8164353436461420      -7.3060313997880062      -8.1286631371064768      -0.0001533018363051       0.0004321730281307      -0.0005185694211857 0 0
H           5.4803381060210166      -5.4662392098775392      -7.0607009983142506       0.0014847041638767       0.0000317502910316       0.0000630733724285 0 0
H           3.2340407423160942      -4.4877849172117603      -6.4170233801371452      -0.0007157408029090       0.0018948699002095      -0.0002793569064271 0 0
H           2.3132089148373924     -12.6387350045474438      -4.9301517845638694      -0.0004752698451616      -0.0017241560868277      -0.0002739754561438 0 0
H           4.2522442175399426     -11.9517449635955799      -3.3903771991719416      -0.0000994264624822       0.0012819698210421      -0.0007536278998124 0 0
H           4.2002236468580092      -9.7241132961243526      -1.4876660940247977      -0.0002645800344758      -0.0008744005920868       0.0003053848630742 0 0
H           5.9659302539483088      -8.4127025197426022      -0.1214313081818782      -0.0004473007437476       0.0000795646011200       0.0022249221782890 0 0
S           2.4290994291905101      -6.5984768526353506      -5.5195168284832432       0.0001823111816262      -0.0000789934505329      -0.0001323948179544 0 0
S           5.6230577164337285      -3.9951858128675455      10.7745836400871688      -0.0000339647638282      -0.0001447103051644       0.0000559748808198 0 0
S           5.3426657069194770      -2.9664734557034520       7.4411907080161335      -0.0000893161077060       0.0001477885403457       0.0001274435342704 0 0
S           2.8801406483749830       1.9565973841384152      10.6868918000361486       0.0002614496159223      -0.0000872536097079      -0.0000460793529805 0 0
C           4.9455139514400228      -2.3863095758216684      10.1931137829462806       0.0000577148938525      -0.0001237384673049       0.0001178689882040 0 0
C           5.4230882976089525      -2.0328654309325462       8.8795406077249570      -0.0000360552199069      -0.0001187806952238      -0.0001327404492766 0 0
C           6.2805984721904755      -1.7676121840673624       6.5241506081575009      -0.0002098345274900       0.0000438113476020      -0.0002127759221363 0 0
C           6.5685164436747652      -0.7104987241138155       7.2701837705137100       0.0002653488661766       0.0000099431575544      -0.0000297473406795 0 0
C           6.1227397751454475      -0.8571767071200292       8.6178182220031214       0.0001383518977920      -0.0001010074012394       0.0001016432626504 0 0
C           6.4387894674364166       0.2641486890662332       9.5609137489799334       0.0002354205675341      -0.0001059634977019       0.0002954822893457 0 0
C           7.6997983490812203       0.9274967831047580       9.5012950500977311      -0.0000709406699007       0.0002449180255354       0.0000479196730083 0 0
C           7.8776150868770110       1.9962130543750995      10.2810061506758892       0.0001382802901132      -0.0001599338308354      -0.0003408288968403 0 0
C           5.5760819784078750       0.9934820529907488      10.3359082548280803       0.0000265354105953      -0.0000051603823262       0.0001185676706122 0 0
C           4.1471767330452529       0.7109910931829484      10.6402398719261306       0.0000383425426469      -0.0002617855309107       0.0001189142804207 0 0
C           1.6845778106158458       0.8467510396886566      11.0537513644536105       0.0000269472906319       0.0000933246626776       0.0000468884128666 0 0
C           2.1516003316995769      -0.3723114235189865      11.3091078679245509       0.0001951016994804      -0.0000899356054410      -0.0000595745344898 0 0
C           3.6135236835996998      -0.4519131319957657      11.1578713206426769      -0.0003076063995115      -0.0002884862007403      -0.0002425578837687 0 0
C           4.2955353099329949      -1.7391618020175212      11.2051584866929659       0.0001000230020261      -0.0002052921509830       0.0001589535079670 0 0
C           4.2303225251398366      -2.6039940207838952      12.3398835059653287      -0.0002077661212823       0.0002890194614564       0.0002222852270698 0 0
C           4.8374630380046959      -3.8235314197731642      12.2721939818933823       0.0000452368230341      -0.0000583762369565       0.0001500422699376 0 0
H           6.5293310018039969      -1.9654644768578280       5.4424557823332771      -0.0012748275820027       0.0005379342269174       0.0013133508320401 0 0
H           7.1347886779947123       0.1450266494208852       6.9170786059604987      -0.0003750015377873      -0.0002919148239017      -0.0001110120149298 0 0
H           8.4519755928824409       0.5660419525510619       8.7801859654625023       0.0003996058240701       0.0000301496699676      -0.0010916671400786 0 0
H           8.8858943592406447       2.5997123019822093      10.3267231193405706      -0.0006945661525481      -0.0003838613008432      -0.0006720751121300 0 0
H           0.6533447276933723       1.0905836364271382      11.0148500778777336      -0.0003061729103409      -0.0006939382373914      -0.0010552367504544 0 0
H           1.4265992244721977      -1.1988307225569741      11.6329484315260796       0.0006970830653145      -0.0001852922541961       0.0002775399252126 0 0
H           3.7973594966143911      -2.1106631333115491      13.2301111457844875       0.0003826655288425       0.0001248600704739       0.0005908631957995 0 0
H           5.0474231917843024      -4.5117313768550069      13.0285465514694501      -0.0002068355809181      -0.0002477743879511      -0.0003848581195201 0 0
S           6.4645522666652973       2.2920916285882180      11.1954148692378848       0.0001407859176182      -0.0000571073083831       0.0000230272543778 0 0
S          -1.9932782502623816       4.6549068072682998       7.2105221650937263       0.0000017932235136       0.0001492230748633      -0.0000411615279133 0 0
S          -0.5450920875070064       3.3443383117994481      10.3283392394689546       0.0001847680549595       0.0000029835461976      -0.0001359423137958 0 0
S           3.3979342074537766       7.4820007541414943       9.2916668529910815      -0.0000200672119196      -0.0000737170692588      -0.0000002378111519 0 0
C          -0.6343288503202913       5.1583325336440460       8.1913322625790350      -0.0001757438636699       0.0001422953384594      -0.0001150497993613 0 0
C          -0.4490746513893423       4.9614582127460967       9.6304247500065490      -0.0001187494106404       0.0000866883113362      -0.0001342781377175 0 0
C           0.0362074648851623       3.9088200201535170      11.8676264901785835      -0.0000501883518009       0.0001551580671735      -0.0001527325007077 0 0
C           0.1480898526925031       5.2505092298244280      11.8679963428731003       0.0004152543932325       0.0001991621550348       0.0004509436821521 0 0
C          -0.1088631584640252       5.8393616314691386      10.6001560645497808      -0.0001887945669566      -0.0000686560111328      -0.0001408259284007 0 0
C          -0.1768158509038255       7.2740234651638334      10.3258009077210264       0.0000150796888443       0.0000292970056343       0.0001379451089985 0 0
C          -1.1523688805501140       8.1445452208651172      10.9942160200232664       0.0000906375812444      -0.0000574020297199      -0.0001258650349264 0 0
C          -0.9935199533973389       9.4494559591815115      10.5749258106891215      -0.0000701481298644      -0.0001494933471814       0.0002171608251197 0 0
C           0.6364051017870058       7.9347540607325531       9.4429123355946167       0.0002091726200655       0.0000511579973016       0.0002608013487956 0 0
C           1.7293654274376506       7.2721638978115957       8.7764808903644020       0.0000064665293050      -0.0001593387614866       0.0000515353768685 0 0
C           3.8747307935981437       6.1882213919774260       8.2288679405882750       0.0000124097929662       0.0001147678756300      -0.0001435970953031 0 0
C           2.8347598064237483       5.7322550263279846       7.4819068289949442      -0.0003996194726002      -0.0000408418320848      -0.0000718273213398 0 0
C           1.6036081459159854       6.3382092217416055       7.7671974150943042      -0.0002410893460413      -0.0000604158989215      -0.0001841763040474 0 0
C           0.2709047568213971       5.8395338197339459       7.3447864446545923       0.0001468777275915       0.0000279955858541       0.0000632112890391 0 0
C          -0.2005430069033884       6.0842033071610837       6.0031825074665477      -0.0000947922189199      -0.0002100768305436      -0.0004659834960427 0 0
C          -1.3896311935280097       5.4853355372922028       5.8167620718802100       0.0001116479705799      -0.0003720661960080      -0.0000165616557217 0 0
H           0.1936943592924681       3.2927617603785349      12.7100876437330648      -0.0001522357904150      -0.0014260795835170       0.0012804208001157 0 0
H           0.6263226574593452       5.7377908232901973      12.6486714195135992      -0.0000869510469024       0.0008028020205214      -0.0008907920224907 0 0
H          -1.8826765543248243       7.8156958358611313      11.6933742187050385       0.0006357891969108      -0.0007266701635641       0.0005218845678936 0 0
H          -1.4778061268255984      10.2704574607429766      10.9534547727504954      -0.0001779879787663      -0.0001030912150948      -0.0003359543701882 0 0
H           4.8329148614224513       5.8097209154731022       8.0981966146517337      -0.0006422913483624      -0.0007811065299242       0.0004767002009993 0 0
H           2.9763893860447315       4.9835052130902540       6.6373691624077287       0.0000510133335452      -0.0002808245417498       0.0006880151852427 0 0
H           0.2916887536783636       6.7354543772961453       5.3260122690416818       0.0006000100978841       0.0014785344857576       0.0006906655142692 0 0
H          -1.9487151103034630       5.5874406263397614       4.8947819280858935      -0.0011181019109411       0.0004757675178956      -0.0012079403646786 0 0
S           0.2145763874150728       9.6211832217707407       9.3610524811309936       0.0000025368196335      -0.0000057421288574      -0.0000785695456941 0 0
S          -1.0893957101899374       7.8972611153749401     -10.4578227799548653       0.0000240470742282      -0.0002604161731149      -0.0002360412173825 0 0
S          -0.8788136840694430       5.1791644661225256      -8.1031026997022870      -0.0000224595480195      -0.0000177304887092      -0.0001600810157835 0 0
S           5.1582907470576496       6.0627038926615962      -9.2949221539159197       0.0001820077263201      -0.0000975016900254      -0.0003006255531875 0 0
C           0.3197154459847307       7.2438923558641335      -9.6801632878355264      -0.0003007291003573      -0.0000377826132114      -0.0002008171644622 0 0
C           0.2206746886522050       6.4906733413719291      -8.4397032021959308       0.0001945751857723      -0.0000358453531410       0.0000422525401082 0 0
C          -0.3571292509498720       5.1368805733817178      -6.4435147230552925       0.0000755427570097      -0.0001853634248868       0.0001698670324636 0 0
C           0.5892145406106006       6.0627603371881413      -6.1617887459136504       0.0001976489154935      -0.0001268317565188       0.0002298684379077 0 0
C           1.0351881355554364       6.6951719691982303      -7.3476907069043964       0.0001315585742438      -0.0002680699905546       0.0000649141021168 0 0
C           2.0886461407882404       7.7527596391377092      -7.3056277426574159      -0.0001107013722994      -0.0001191790542100      -0.0000250881770649 0 0
C           1.9323051179391406       8.7560130184786811      -6.2317810294956546      -0.0001099390102557      -0.0002531310693348       0.0000878024825873 0 0
C           2.9222775328845976       9.6829311460561041      -6.1508249905692116      -0.0005009214236781      -0.0003865453010392       0.0002494831789014 0 0
C           3.2838101370598638       7.8948126901466029      -7.9895324046752920       0.0000690082216535       0.0000138247090550       0.0000296434743562 0 0
C           3.7050551601615829       7.0618032686469672      -9.1126630671606552       0.0002273473999285      -0.0000351453755935      -0.0000425997650802 0 0
C           4.6447017265413102       5.4003947997839159     -10.7849100047271236      -0.0000711972100927       0.0002218599165602       0.0001228267419802 0 0
C           3.4979836190688585       5.8979444562083509     -11.1327092931927467      -0.0001716458582862      -0.0000684748089133       0.0003216933491114 0 0
C           2.8566422233461077       6.8667905675068015     -10.2149402871133788      -0.0002061033934557      -0.0002707853471984       0.0001517585425283 0 0
C           1.4796982234800395       7.4348699276081378     -10.4525323315911951       0.0000042824147467       0.0000678897442669       0.0001947501564722 0 0
C           1.1710432970733007       8.0778940035441202     -11.6798035279696606      -0.0002032250615925       0.0000650203312834      -0.0000401825225526 0 0
C          -0.1421790673622643       8.3110920566120825     -11.8451756928800105      -0.0000888231915714       0.0001494938953539       0.0000763437191372 0 0
H          -0.8174705645645195       4.4504292119600342      -5.7231283107238378      -0.0000324517367458       0.0000175946257693      -0.0002547779812674 0 0
H           1.0895881695250120       6.1105217120752311      -5.2394442256040250      -0.0006923919236859       0.0003412527060608      -0.0004105227896894 0 0
H           1.1865623878524687       8.6346594213482319      -5.4024392710079345       0.0009044310744233      -0.0002250840857712      -0.0012044479250083 0 0
H           3.0612785211982048      10.6141830899150076      -5.4646879864049129      -0.0003957482850696      -0.0002996416382163      -0.0000549222624232 0 0
H           5.2869403366739371       4.6811232537722995     -11.4410799135508157      -0.0006009268809762       0.0005059173742644       0.0000642729519549 0 0
H           2.8779192303001944       5.5362679483536015     -12.0497024570868341       0.0009363943494456       0.0002082957055748       0.0013501778624762 0 0
H           1.9481888670891443       8.3773615729158823     -12.3413363383245542       0.0001556949732661       0.0007125485900912       0.0001264987068374 0 0
H          -0.5520917075774698       8.8188578484565934     -12.7444761760386172       0.0003620083904784       0.0000985936293295       0.0024164993593879 0 0
S           4.1168018218364661       9.2885707872309240      -7.3628630384443126       0.0000167603943830      -0.0000189326837521       0.0000712104708308 0 0
S          -0.8626076226935109       9.0563009844538573      -0.8365537392852466      -0.0000863216345975      -0.0002685125816745      -0.0003372370602811 0 0
S          -1.2464826796010813       8.3282205018843669      -4.4736035412394655       0.0001032257686083       0.0000084409802221      -0.0001220023673392 0 0
S          -6.5127963401224376      11.0517606925681573      -3.5029526157647308      -0.0001252865158530      -0.0001688990557672      -0.0000849590143113 0 0
C          -2.1670301041002089       9.3064573832644673      -2.0248863590374979      -0.0001595284965453       0.0000502788388896       0.0001509337940309 0 0
C          -1.9150716864215580       9.5348136145976738      -3.4396063217388502       0.0000734821079240       0.0001812048526200      -0.0000842934063281 0 0
C          -1.0549939836625259       9.3966684112981458      -5.8369330068353209       0.0003097559755870       0.0000047204864348       0.0000540609974091 0 0
C          -1.5451650876168281      10.6129550157239620      -5.5519475580939819      -0.0001098052421050       0.0002220031771859       0.0000149161497252 0 0
C          -2.0230035591174391      10.7062640369068944      -4.1431872354579973      -0.0003202654667874      -0.0002600296872315       0.0000311643415073 0 0
C          -2.5374135433470544      11.9942973683070626      -3.5605860199509536       0.0000591526550469       0.0003480965177292      -0.0001565543821855 0 0
C          -1.7962036388148610      13.1181895374188962      -3.2247517027067807       0.0000270732786987      -0.0002042477935126      -0.0002879267600806 0 0
C          -2.4969008832166648      14.0475521535107717      -2.5765262979677357       0.0002880432045348      -0.0001633046712606       0.0005616682844235 0 0
C          -3.8431287110696810      12.0521004706410153      -3.1088465607390754      -0.0001953386266189      -0.0000439090367577      -0.0002678156392350 0 0
C          -4.8556647005359137      10.9746551977093212      -2.9283036075082669      -0.0003796750365442       0.0000176525199137      -0.0001461676063680 0 0
C          -6.8979530624190124       9.6627611857843849      -2.4920026476346711      -0.0001111551799849      -0.0002118470016199       0.0002078805716021 0 0
C          -5.8421026426351235       9.1460019419480663      -1.8827359401589820      -0.0004420826621368       0.0000493759052457      -0.0000585798212392 0 0
C          -4.6482798901983760       9.9367402379039369      -2.0652562209212424       0.0001837358298613      -0.0000264036305940       0.0002371875645573 0 0
C          -3.3686384755505236       9.6104636906752834      -1.3845701507309900      -0.0001231140560461      -0.0001540793600356       0.0000631886481272 0 0
C          -3.2014150105421932       9.6392733512199484       0.0270184242852116       0.0003133051693583      -0.0002229419526188       0.0000143001898894 0 0
C          -1.9232605884655083       9.3919157998730292       0.4586075749143105      -0.0004815437612866       0.0000983199662626      -0.0001218105958534 0 0
H          -0.5184052490955496       9.0678064638575950      -6.7263863998271107      -0.0013317853237248       0.0010468255070245       0.0011142914990975 0 0
H          -1.5768554451997177      11.3994123765979811      -6.3638934000483980      -0.0003605801993321      -0.0001605291800736       0.0009331331412705 0 0
H          -0.7185355233099608      13.1488257507935273      -3.3131710940583288      -0.0007754393363013      -0.0002336916125942       0.0003680349570085 0 0
H          -2.0699745486202565      14.9261002036565369      -2.0596151821520121      -0.0018419343767833      -0.0013211701284260      -0.0008800457252611 0 0
H          -7.8432385995602498       9.0732742963017650      -2.5988836906240325       0.0011241801956641       0.0002911003991249      -0.0003894575524440 0 0
H          -5.9097421415963201       8.2646349286021721      -1.1875075863639706       0.0005989856633501      -0.0001050373676805       0.0002210258613054 0 0
H          -4.0346759577450202       9.7691720433799656       0.6791065105363703       0.0001376504073439      -0.0007200852523412      -0.0002459099927415 0 0
H          -1.5984724770761023       9.4283319706209330       1.4547781741614565      -0.0003884630244497      -0.0003753329815568      -0.0003975174007220 0 0
S          -4.1487915866343004      13.6515317769200824      -2.4067792189437140      -0.0001962111099119      -0.0001143297790276       0.0000572386503745 0 0
S           7.7136511158888306       9.6981421879362966       4.2045855289970708       0.0000507675198233      -0.0000690797797873      -0.0001553215036213 0 0
S           5.9607280150971027       7.9978361685338903       1.2176113881553894      -0.0001007344150196      -0.0000028601355945      -0.0000507711452335 0 0
S           1.3287581712745877      10.3230731020983448       4.5976722122633875      -0.0001318449993833       0.0001084843796535       0.0001479489344034 0 0
C           6.0047243337924243       9.4651735105615185       3.7118761456382252       0.0001393968070808      -0.0002508110830633       0.0000003976352510 0 0
C           5.5735740171395012       9.3118862125701813       2.3251697608384627      -0.0001333918805147      -0.0002175650960426       0.0002247990176093 0 0
C           5.1193775968394499       8.8192706128183147      -0.0868891057787527       0.0001010741913871      -0.0001666287355754       0.0004011394550536 0 0
C           4.7177615305797982      10.0683168494755506       0.2759082297604632       0.0000479857437973      -0.0001385498076772       0.0001147497177923 0 0
C           4.9100071573743254      10.3241228991415319       1.6385039286634173       0.0004132672496897      -0.0000250084575531       0.0002153794986777 0 0
C           4.3394835857002150      11.5724634595690450       2.2476188412405169      -0.0002353184286833       0.0001047112378204      -0.0000376363265663 0 0
C           4.5121672868292508      12.8787339388946336       1.6703751973142034      -0.0000589061311232      -0.0000283779765621       0.0000361674970061 0 0
C           3.6872680085989833      13.8350096789726109       2.1084792251056204      -0.0000972255073575       0.0003369055992922       0.0000145255192126 0 0
C           3.3554287276514856      11.5939487834844233       3.1971962765157285      -0.0000686548383366      -0.0000207903596758      -0.0000727737452457 0 0
C           2.9920908237734212      10.5181418097056039       4.1256316879954866       0.0000611334118917       0.0001548874446219       0.0000296537856266 0 0
C           1.7515516780169689       9.2521370114824961       5.9250468738219810      -0.0000433824373520      -0.0004333360940356       0.0001769998288863 0 0
C           3.0656874665210538       8.9414713737396205       5.8726678510579662      -0.0001250968485628      -0.0002804843320285      -0.0001585209808274 0 0
C           3.8061525907345612       9.6649426813599906       4.8572599808130148      -0.0001754591968576      -0.0000667006673248      -0.0002301541813452 0 0
C           5.2447799388746779       9.6131873683875444       4.8316643633877785       0.0001383927497587       0.0001309991081986       0.0000441722753116 0 0
C           5.9941521832915186       9.5387945339181641       6.0355505028263936      -0.0000884493986876       0.0001153999740868       0.0001320355455298 0 0
C           7.3698162618158349       9.6151702092599205       5.8812289381010476       0.0000129037635843       0.0001674195489944       0.0000948779796835 0 0
H           5.0170871730945636       8.4408596266958682      -1.0533909735788154      -0.0010520111667381      -0.0012961852970348      -0.0021110908641113 0 0
H           4.1817490229977192      10.7763091738150933      -0.4187256385799230       0.0008164771733094      -0.0004322039711625       0.0005365359446807 0 0
H           5.3114573975013339      12.9914016478881340       0.8264131548037352       0.0006366794324912       0.0000733537509102      -0.0008876725405054 0 0
H           3.7758011671795719      14.8439886931346674       1.8226920386273682      -0.0012798127940696      -0.0023473012450191      -0.0002055194629032 0 0
H           1.0894730002977762       9.0570270081772399       6.6793208200268017       0.0006929133357194      -0.0009105735114307      -0.0011282741252155 0 0
H           3.6505973793621362       8.1725503857549988       6.5750461904341648       0.0000600292894572      -0.0011672432994530       0.0006292030170159 0 0
H           5.4972590221230693       9.6235358294435933       7.0202447906540444       0.0008754067895081       0.0000695817308308      -0.0013745010260312 0 0
H           8.0252021865845986       9.6262772545119759       6.6541689573373652       0.0003962491017730      -0.0003251945067136      -0.0007180418323060 0 0
S           2.6346958819820543      13.1866175982220764       3.2841194449190776       0.0000690694229364       0.0000062597565702      -0.0001724164046086 0 0
S           1.0898327645074171       4.4226028231760166     -12.9280891215801219      -0.0000271952603925      -0.0000745193005032      -0.0000802184665809 0 0
S           1.3999109317495106       3.6230746454772640      -9.6828387653252577      -0.0002347891571409      -0.0001473305039606      -0.0000063281279301 0 0
S           2.5943064797983966      -1.9515684136451794     -12.4451632456531769       0.0001348721032691      -0.0000226591370576      -0.0001618382724968 0 0
C           1.5941674320921162       2.8882608264041063     -12.2439757707847185       0.0000345318942439      -0.0001878758440988      -0.0000662177057408 0 0
C           2.1985759333428279       2.8114975878788870     -10.9391718177406467       0.0001576147591097      -0.0001159365109332       0.0000702115579532 0 0
C           2.7118214127236464       3.3789657374722855      -8.5895396950162315       0.0002783469423068      -0.0003268425630672       0.0001217113333686 0 0
C           3.6494431520065613       2.5863739744383736      -9.1835731490263299      -0.0001782355962159      -0.0000789770483933       0.0000636062830260 0 0
C           3.3439168779164445       2.1665284901888624     -10.5617787922411299      -0.0000867226384205      -0.0002000687716126       0.0002722014824921 0 0
C           4.2655483131138263       1.4822820731072115     -11.4751350138687762      -0.0000639484264738       0.0000563598426681      -0.0000200310012501 0 0
C           5.6704346284658609       1.8354204885458236     -11.4029789747830996       0.0003350009289335       0.0000121211877263      -0.0001657599319674 0 0
C           6.4783035177368697       1.0275863156035594     -12.1747619091552703       0.0000381556024793      -0.0001104771479390      -0.0000042074938327 0 0
C           4.0332550965392819       0.4806600890989290     -12.3523827397568304       0.0000586847346762      -0.0002326204799715      -0.0001985337216584 0 0
C           2.7837332337076157      -0.2029650941824983     -12.5492923486976213      -0.0000567958146259       0.0002230542883161       0.0002279552618150 0 0
C           0.9029678790688518      -1.8762246381149588     -12.6844630928013267       0.0002018346575266      -0.0002514385302438       0.0001682269041151 0 0
C           0.5232504510257145      -0.5678058840370993     -12.8627035320789282       0.0003600045856587       0.0002630705467508      -0.0001191118552063 0 0
C           1.5571361782277264       0.3827689144469012     -12.8428429643187449       0.0000969524753852      -0.0003323865960581      -0.0000097262141725 0 0
C           1.2731435552779766       1.8328615542024429     -13.0672718990513559       0.0000228577525071       0.0002324793500243       0.0000976888613385 0 0
C           0.6347125359933636       2.3354964958164115     -14.2690140164826467       0.0001579044901366       0.0000223365337267       0.0003468824155835 0 0
C           0.3991909856438866       3.6267765899057376     -14.3395275832901614      -0.0002156841375483       0.0002158700701307       0.0002209260384805 0 0
H           2.6097169712187274       3.6161418169213064      -7.6072202329875571      -0.0007084560041971       0.0012252404219990       0.0009318868864748 0 0
H           4.5847985510245595       2.2065511957715183      -8.7300303340249172      -0.0006784585349789       0.0004970824108715       0.0002252167540176 0 0
H           6.0526799690789694       2.6240618939996416     -10.7314375199747296       0.0001056821559221       0.0000703690264286       0.0002399112082614 0 0
H           7.5957036982956669       1.1680920145329361     -12.2932574797799301       0.0017342624915334       0.0003902911278047      -0.0004850239941718 0 0
H           0.2427933082361943      -2.6565792077862973     -12.6994013990540928       0.0010479225015932       0.0011372814609283      -0.0002078276884036 0 0
H          -0.5377236878404742      -0.2529095737186719     -12.9448050168791173      -0.0011756727254918       0.0008499829690752       0.0010986796446813 0 0
H           0.2060156599387103       1.6198283299141885     -14.9138474890034463      -0.0009288705350992      -0.0013635586117084      -0.0004438032348919 0 0
H          -0.1337917675102621       4.0927705203190712     -15.1793465561302199       0.0012591308496949      -0.0007437879940339       0.0008111159046158 0 0
S           5.5103185310180764      -0.0346879328690150     -13.0896823518855800      -0.0001150795155426       0.0000631566512391      -0.0002775711921678 0 0
S         -12.9485653812007797       5.1583192041264585      -0.2341675756585969      -0.0000307973214161       0.0001935865482849      -0.0001163235073597 0 0
S         -11.2410803375027211       3.3735280347712173       2.1797905855929414      -0.0000493285359679       0.0001388910614606      -0.0002263104895078 0 0
S          -6.6252663843402528       6.6041562916606775       0.1053371937266116      -0.0000548022627245      -0.0001659520281679      -0.0002113277467100 0 0
C         -11.3527631885128688       5.5520778702454097       0.3518879288735368       0.0000086826029876       0.0002195377910811       0.0001920999177296 0 0
C         -10.9109388723974554       5.0142190905836337       1.6421005148152901      -0.0000884136457319       0.0000064650129525      -0.0001693096397801 0 0
C         -10.4429593432674785       3.6650157500520359       3.7184651458124236      -0.0000136228613209      -0.0000610551393778       0.0002887077762895 0 0
C          -9.8653328609021198       4.9022577525590432       3.7325309955117723       0.0001525248513214      -0.0000962378277160       0.0000314768149541 0 0
C         -10.1710887860814356       5.6779044975782345       2.5663120268589150       0.0000439799367462       0.0000754871237085       0.0002154757910575 0 0
C          -9.8535054858258579       7.0778022441005355       2.5202301196999226       0.0001483985127973       0.0001103768915820       0.0000110261231116 0 0
C         -10.0728439109830159       7.9788032798989335       3.6363593959905920      -0.0001579625414696      -0.0000319417771653       0.0001462783330390 0 0
C          -9.3414275904816968       9.1362846058854110       3.5354261343254927      -0.0000277954683957      -0.0001486690883527       0.0000973213517188 0 0
C          -8.9163709945640246       7.5212152936074679       1.6146881995082050       0.0000132271953785       0.0001631082649143       0.0000965107700568 0 0
C          -8.3929102952631496       6.8961760997470538       0.4292275986725564       0.0000400497618465      -0.0000941970017996      -0.0000657784641401 0 0
C          -6.9472509408585132       5.9068858535827475      -1.4119278490525011      -0.0001778037854514      -0.0000909180115352      -0.0000046273649742 0 0
C          -8.2561015645140561       5.8651412374461840      -1.6587195024457200      -0.0002396271422701       0.0003603224423556      -0.0000991459194083 0 0
C          -9.1245390259258841       6.3803962626432122      -0.6163647468354122      -0.0000715067532280       0.0000088945827134       0.0001082891267285 0 0
C         -10.6631344284066660       6.2191189469211068      -0.6075569924589052      -0.0000367628131169      -0.0001032532944372      -0.0001025144085224 0 0
C         -11.4676707619407967       6.5915523617181933      -1.7468680180234077      -0.0000409450607444       0.0001582786037783      -0.0002001417236015 0 0
C         -12.7163859923739775       6.0737019056482264      -1.7114080546119821      -0.0001196890480748      -0.0000713304944466       0.0000541178864799 0 0
H         -10.2787915106469878       2.9095429295745876       4.4143478995899619       0.0007907012786014      -0.0006388470359821       0.0001086973247983 0 0
H          -9.1667159653367314       5.2896960504335970       4.4312202770486628      -0.0010427482031031      -0.0009679283691298      -0.0000707780868776 0 0
H         -10.6264534970946496       7.8067543309744876       4.5419856028998966       0.0010313269422388      -0.0000037598498841      -0.0015561967511314 0 0
H          -9.3626246636101396       9.9140799579196539       4.1767984467139172       0.0004597176911211       0.0001863384453848       0.0001442758964283 0 0
H          -6.2463179466631118       5.5041645939380270      -2.2122548069233945      -0.0001865318051120       0.0000445528164514      -0.0004401249397812 0 0
H          -8.6356791814308220       5.4092817507915205      -2.6626027100371639       0.0003197994067541       0.0004927026749104       0.0004320859122817 0 0
H         -11.0186656177816822       7.1489288967882132      -2.5288348505347216      -0.0005025774861470       0.0005504298129731       0.0001106626421387 0 0
H         -13.4202865319947033       6.1950998629891023      -2.4707843772909750       0.0013891041414936      -0.0001197609068249       0.0014740117631150 0 0
S          -8.3423169009323281       9.1106725376487319       2.0971548858896059       0.0002285627076489      -0.0000082836340424      -0.0001611167164054 0 0
S          -0.9525823193225819      -8.2250175915750550       6.6340753542584965       0.0000416556682100       0.0001583709214295      -0.0000076029796776 0 0
S          -2.9415342292944979      -8.8075299094931037       9.6162814648361703      -0.0000213158966329       0.0000153693009424      -0.0000140485317315 0 0
S           2.1471196875839484      -5.9489174795003574      11.8733774862379313      -0.0000133018073619       0.0000652577305887       0.0000118306883398 0 0
C          -0.6668371790714249      -7.7094771623145615       8.2741028682641922      -0.0001378703562869       0.0000149637771266       0.0000246171542778 0 0
C          -1.7397672811916556      -7.5546944432348093       9.2819457264951453      -0.0002501567297414      -0.0001423937060447       0.0001147463723790 0 0
C          -3.8091555142571520      -7.8189574846039296      10.6481331360548541      -0.0000898080830250      -0.0002126609503378       0.0004020362749447 0 0
C          -3.1847940843327112      -6.6163757614146732      10.7778699242850635      -0.0003809123088936       0.0003026697987091       0.0001335170834469 0 0
C          -1.9809964570491359      -6.4506515826581490      10.0818709800047035      -0.0000171947004995      -0.0000492388808672      -0.0001915723698886 0 0
C          -1.1905629956637727      -5.1960438113064926       9.9213764435817104      -0.0001498879808867      -0.0002527530949987      -0.0002033266727955 0 0
C          -1.8234324057980091      -3.9763365473178123       9.3872126892426575       0.0001615052322195      -0.0000596676055625      -0.0001814155127923 0 0
C          -1.0527093824172640      -2.8943575676043598       9.5543906496148008       0.0000535764995340      -0.0001198618885279       0.0003581313528500 0 0
C           0.1469714629151252      -5.0473669123163587      10.1565783277169110      -0.0000176650181815      -0.0000524929648605       0.0000728165114669 0 0
C           1.0769995560959926      -6.0900862987909603      10.4688490259633085       0.0002833367013970       0.0001730108553785      -0.0001062634866415 0 0
C           2.9482486430627168      -7.4253302088803386      11.4482800730897267       0.0001260403719495      -0.0000936171569185      -0.0005135317481056 0 0
C           2.3843104067619181      -8.0062273403135347      10.3670540501132677      -0.0000773881338590       0.0000477275210764      -0.0000566021895874 0 0
C           1.3155412907615671      -7.2326629152126856       9.7692231352024201      -0.0002087706386662      -0.0004552206474793      -0.0000591829669572 0 0
C           0.7125865676281726      -7.6547705243103072       8.4718776069619253       0.0000724226167959       0.0000579056474364       0.0003571682206393 0 0
C           1.4674368601140553      -8.2469513698731660       7.4589736007632137       0.0003189625032621      -0.0000425173562871      -0.0002359253535470 0 0
C           0.7371129195912766      -8.6433779113727969       6.4124086764475381       0.0003723694734342       0.0001882913699555      -0.0000662531814780 0 0
H          -4.5831500532741822      -8.2336069057013201      11.2073345054487366       0.0005395366875423      -0.0003623837982265       0.0009011627345088 0 0
H          -3.3899250830923862      -5.8887389651754622      11.5839212356902710       0.0000978828163664       0.0006079681736639       0.0008515438252677 0 0
H          -2.8965087368769105      -3.8352172937147313       9.0179743035900053       0.0027122503677001      -0.0010304504264632      -0.0001357931860939 0 0
H          -1.3565674330130826      -1.8633970195234006       9.3146460490841232       0.0002869939962581      -0.0022126340509788      -0.0000323446295287 0 0
H           3.7418509906463147      -7.8658059867510408      12.1665974568991988       0.0012420001508337      -0.0005399890533075       0.0000593026587823 0 0
H           2.7833373145248599      -8.8647029612240225       9.9350647192604491      -0.0016890447943924       0.0018955126887467       0.0002476508552338 0 0
H           2.4853485231010897      -8.4707671803393012       7.6036500977190933      -0.0002342484551182       0.0005901695821481      -0.0004121643037546 0 0
H           1.1074063821669813      -9.0145483975383822       5.5163534693951268      -0.0001259710534350       0.0012286574221732       0.0014645014219071 0 0
S           0.4730603032905028      -3.3580982096869652      10.2297205674127998      -0.0000225993600131      -0.0001260137806974       0.0001356358861130 0 0
S          -1.5851444419844634       9.8893032432315966       5.2956954764668431       0.0001682406230190      -0.0001625539585394      -0.0001104444774069 0 0
S          -3.0930634190915662       7.4048029089925143       3.4858209702924308       0.0001747304821330       0.0000657205759404       0.0000832975144191 0 0
S          -7.7115918938343668       8.9402367317727354       7.3285208130735748      -0.0001537907266093       0.0000488347865118      -0.0002578247938718 0 0
C          -3.2651087049467487       9.4470922199951364       5.3863964734395422       0.0001142611578889       0.0002800702748183      -0.0000853988458595 0 0
C          -3.8472696943752878       8.7104950357800668       4.2810515562490910       0.0001175408098352       0.0000631059392244       0.0003325518177397 0 0
C          -4.4346117938719329       7.1708389055810917       2.3701842049450321       0.0002353041185405       0.0000520052954288      -0.0000751516586042 0 0
C          -5.3790567625379380       8.0587399976964278       2.5905249226073734       0.0000955389774419       0.0003483196011358       0.0002351130412329 0 0
C          -5.0229459967712424       9.0302625990029455       3.6145327039741679       0.0000422702368171       0.0002043475450200       0.0001032164611608 0 0
C          -5.9261905221579640      10.1724744911464953       3.9603491546039562      -0.0001859012704329      -0.0000399839462021       0.0000087040976554 0 0
C          -6.2432784521055309      11.1468191804246004       2.9648046328620947      -0.0001028582962860      -0.0000272289906307       0.0000820094305305 0 0
C          -7.1797920106608943      11.9952707202577766       3.3495906637209605      -0.0002931765880325       0.0000497060399776       0.0001846871957323 0 0
C          -6.5320539682105245      10.3643192826710049       5.1784650058178539       0.0003457653913946       0.0000187565978276      -0.0000515897811998 0 0
C          -6.3572375601491569       9.5572119472266408       6.4126943586175909       0.0003290010496290       0.0000760160988284       0.0001037440171285 0 0
C          -6.6322631022135194       8.3981837917982727       8.5777740016979269       0.0001752420962780       0.0001660947777838       0.0001162650253247 0 0
C          -5.3303660277379095       8.6916447636759084       8.2802824439797380      -0.0000703648946866      -0.0000165439315881       0.0000370461751985 0 0
C          -5.1599571210886044       9.3470763872903255       7.0290553664527700       0.0000198936274256      -0.0001530607375178       0.0000574941540502 0 0
C          -3.8450175928804757       9.8119993581439395       6.5674338420265981       0.0002269312368049       0.0001452873799230       0.0001287082906931 0 0
C          -2.9537248180014233      10.5920330087974808       7.3681997135865327      -0.0001419488460638       0.0000815733828829      -0.0002472837306512 0 0
C          -1.6818827079511751      10.7116756590087636       6.8119275807486011       0.0001249075755694      -0.0000521535254513       0.0000174009935122 0 0
H          -4.5020205848764796       6.3277381132668884       1.6844927406036128       0.0000544234874535       0.0009294999935399       0.0008546496656551 0 0
H          -6.3364709621164383       8.1902323547196207       2.0263081457101322       0.0003044400135525       0.0012570371257325      -0.0003230345512260 0 0
H          -5.8734593144469152      11.0403744646740076       1.9495592309173653       0.0011700783709023      -0.0003633662965963      -0.0009021335591589 0 0
H          -7.6088096384019757      12.7089921243751593       2.7562668934591206      -0.0000648744217983      -0.0003224570341996       0.0011209141107696 0 0
H          -7.0023528967770821       7.9103861708823544       9.4104282403020196      -0.0003668172155260       0.0000956200025397       0.0005403647043185 0 0
H          -4.5858637686277000       8.4974760398184603       8.9346115967570245       0.0001242211951911       0.0005160548598435      -0.0003232051926155 0 0
H          -3.3385833255550450      11.1601076810046589       8.2200956767639841      -0.0001981496612790       0.0015030581407198       0.0022140880758794 0 0
H          -0.8930394948274588      11.2417755416152421       7.1408280173486531       0.0001998233343093      -0.0003334851395299      -0.0001767193821077 0 0
S          -7.5711706673929271      11.7948217220166587       4.9987030913391202       0.0001049407525221       0.0000902772358602      -0.0001430322169158 0 0
S          10.1449240328983503       1.2859570007563972       6.4028554078123250      -0.0001805027038933       0.0000503100518646      -0.0001327850011548 0 0
S          10.4228832253419128       3.7989790303304329       8.7091694703135119      -0.0000273964210086      -0.0001249482310330      -0.0000924496360929 0 0
S          11.3649138193286401       7.0473447589331837       3.7606298996578635       0.0000176196662944      -0.0000634886549362      -0.0001247158399944 0 0
C          10.2359066445396767       2.9419172691978166       6.1170082450716325      -0.0000592112662435       0.0000741382848336      -0.0001533494902996 0 0
C           9.8453607913198198       3.9535891199086324       7.0638678780264357      -0.0004582311099970       0.0001068112838035       0.0001228163840229 0 0
C           9.6196161615512459       5.1736224264562463       9.2491192958898978       0.0001736933135233       0.0003257213666277       0.0000347532961749 0 0
C           8.9429028112146067       5.7226731309811747       8.1962756444312177       0.0000074750516129       0.0000388105486359      -0.0001923288574659 0 0
C           8.9968662113336553       5.0062374480797374       6.9315647174057409       0.0001130635724811       0.0001144114152625       0.0001313903224598 0 0
C           8.3632005991274880       5.4999877568628133       5.6748463266489964      -0.0000990288047020       0.0001790750780139      -0.0000882263551337 0 0
C           7.0464329272461335       6.0796012031500259       5.7325510344911788       0.0001046804053065       0.0000104285378607      -0.0002189567549040 0 0
C           6.6467682206204630       6.5467197822857477       4.5288770727497676      -0.0002621469123675       0.0000076810972754      -0.0001556480599652 0 0
C           9.0169667040107786       5.7062469980875656       4.4879328054323784       0.0000655525274282       0.0001373796453661       0.0002379593671819 0 0
C          10.4728102783298809       5.5921169545575466       4.2686608624433635      -0.0002711730405268       0.0000734129639847       0.0001377157819626 0 0
C          12.7798915606766190       6.1816833043278328       3.7037885100332746      -0.0000364144567411       0.0000183966891223      -0.0000769197465339 0 0
C          12.6940167412007234       4.9279457015818240       4.0862019205440703       0.0001669903356938      -0.0002566968052656      -0.0000672801318524 0 0
C          11.3617990557145419       4.5694657319034651       4.4993931686067716      -0.0001061829633180      -0.0000720113922718      -0.0001242861204525 0 0
C          10.9999699581785162       3.2179135412673041       4.9676048808667757      -0.0002671312927272       0.0001661778300005      -0.0000685698862768 0 0
C          11.4345001462797420       1.9850921168885558       4.2678933470933318      -0.0000314245669286       0.0000063229866945       0.0001238442592187 0 0
C          11.0349971350230014       0.9014087882470082       4.9886140779212758      -0.0000635633639684       0.0001869425742844       0.0002607855440614 0 0
H           9.6111065548757590       5.5112488796531593      10.2215490208046376      -0.0005187387584477      -0.0008439744275150      -0.0008092218509150 0 0
H           8.4353857120883831       6.6453787330270178       8.2621064291723165      -0.0003289161802055       0.0007452390604294      -0.0001561173096851 0 0
H           6.4150526905012724       6.1708098022857918       6.6081310679431748      -0.0009151321709176       0.0000763341390540       0.0021556733094429 0 0
H           5.7110884539497402       6.9389822167337556       4.2779274607306030       0.0003460294383509      -0.0012692673735774       0.0009690294846844 0 0
H          13.7231066643504533       6.6736886654448595       3.4463079759701336       0.0005692470427815      -0.0002117952133426      -0.0003041844355863 0 0
H          13.5335333464038623       4.1013818324423248       4.3407982161395093       0.0000731007120707      -0.0000411719832894      -0.0004212845458803 0 0
H          12.0275697477656820       1.8754606182413431       3.4245540738472218       0.0008848889556814       0.0000232068633927      -0.0001507362781290 0 0
H          11.2287590753216104      -0.0317725974526813       4.7455748123226611       0.0000336408351560      -0.0013641028596330      -0.0007453622918705 0 0
S           7.9530375609852921       6.3681423917704461       3.3304851136607980       0.0001084799564188       0.0000003037556646       0.0000084213460334 0 0
S          -1.1295999667796321     -13.0750595148652842      -0.6065814024761328      -0.0000061345783948       0.0001412326447767      -0.0000215389571614 0 0
S          -4.4394453782583705     -13.3919202687154844      -0.8563854472505303      -0.0000444492053355       0.0000179889192256       0.0001665898373786 0 0
S          -3.4566757312716270     -12.3677876451410622       5.4441609592970828      -0.0000467077442317       0.0000417535857103       0.0000120364715281 0 0
C          -2.2569192467581809     -12.8241712843624924       0.7386231667822927       0.0000244601434990       0.0000028606129112      -0.0001228707068100 0 0
C          -3.6575954661425416     -12.5692926202267063       0.4754202512043050       0.0001342973765645      -0.0000219157487563       0.0001646014942631 0 0
C          -5.9240751104957372     -12.4515289071917401      -0.7527257637827653       0.0000604010461115      -0.0000407638990702      -0.0000829820635948 0 0
C          -5.8125772197076078     -11.5643808040397627       0.2595546005900546      -0.0002023693599623       0.0001737001925639       0.0000635300043140 0 0
C          -4.5692388251770168     -11.6636920700941840       0.9627872497213136       0.0001749332089299       0.0000953512346581       0.0002226724368311 0 0
C          -4.3016556300283391     -10.6260236250101183       2.0097257354603832       0.0001007601955197      -0.0000173776434723       0.0000287178589971 0 0
C          -4.6946923255856179      -9.1914371889784263       1.8568135599728950      -0.0002967688202614      -0.0002542080822350       0.0000714099811745 0 0
C          -4.3591837879273152      -8.3823164845076761       2.8504109142330281      -0.0001629845700131      -0.0004115288634020      -0.0000670857743296 0 0
C          -3.7016838140509076     -10.7948011881168853       3.2358207925236266      -0.0000290150181151       0.0001527508792980      -0.0000099790617685 0 0
C          -3.1146961654224934     -11.9792345885410434       3.7976247430097518       0.0003361921995709      -0.0000933461652167       0.0000233227103086 0 0
C          -2.3667726241356881     -13.6254360729372141       5.5344666996668144       0.0003235335836662      -0.0000424546766882      -0.0001938807297744 0 0
C          -1.8747699558484896     -13.8321449238589107       4.2727813847776881      -0.0002872918040488      -0.0000178478718962      -0.0002344448201363 0 0
C          -2.3178625539105129     -12.9082525081469459       3.2228954551504603      -0.0001581696019374      -0.0002281278219648       0.0002368065784633 0 0
C          -1.6321499450122439     -12.9289915894234735       1.9263222914422176      -0.0000958178061096      -0.0004583506778379       0.0001206596114286 0 0
C          -0.2179055884773828     -13.1564246519666845       1.7480904737364726       0.0003404562866192      -0.0000643297176836       0.0002358831394951 0 0
C           0.2228000417028370     -13.2601673046241917       0.4689669335353264      -0.0000319128381749       0.0000295260725166      -0.0001141552240408 0 0
H          -6.8788758966771022     -12.5666017451961363      -1.2955696613479530       0.0002563966838416       0.0002133628003292       0.0001431262446130 0 0
H          -6.4345491909172186     -10.8619733413169310       0.5527526925022174       0.0004196514002005      -0.0002138667705174       0.0005771528844813 0 0
H          -5.1513597393154580      -8.8645268712495398       0.9578857783059194       0.0007381828644278       0.0000933688580569       0.0017049775233491 0 0
H          -4.5968804891456969      -7.2131826415201941       2.9579502092677159       0.0000925609455319       0.0010157808228515      -0.0002458721036699 0 0
H          -2.1513416678492869     -14.0694452311397420       6.4361136332962374       0.0008885677411999      -0.0001982256189448       0.0000581464622532 0 0
H          -1.0909616341159911     -14.4890897152718718       4.0553133002657473      -0.0000023181395093       0.0002487688530398       0.0003159737798429 0 0
H           0.4765224876291162     -13.1851364171219849       2.5745571584334099      -0.0004906184367506      -0.0006357281712206      -0.0005918561550623 0 0
H           1.3047651382284042     -13.4254832913630189       0.1133754586745038       0.0014709576180081      -0.0015138633522522       0.0002613645503340 0 0
S          -3.7374332827219017      -9.3004473707604607       4.1516944520141950       0.0001046857867179       0.0000486261265549       0.0001282049706805 0 0
S           6.8149116559640550      12.9567176055338802      -2.9548572558750026       0.0000194415922490       0.0000673583565337      -0.0000884246849121 0 0
S           4.2935867724881032      13.0241419217174936      -5.7283547718252441      -0.0001961281206245      -0.0001828955068773       0.0000106166216317 0 0
S           2.1327789113228044       8.6263319909202849      -2.7627657556770373      -0.0001850140101737       0.0000807973553431      -0.0001264470818115 0 0
C           5.2705829609755979      12.1731587759624968      -3.3220657171054224       0.0000377942978875       0.0001150617639081      -0.0001671910242438 0 0
C           4.1506332368185834      12.6838045671950201      -4.0661989531482003      -0.0000589600930395      -0.0003487199244953      -0.0002086935165635 0 0
C           2.6007421854837061      13.4393871394215214      -5.9024999733040273      -0.0001351612966676      -0.0001544442363843       0.0000042406704954 0 0
C           1.9996025826687753      13.3806588474775889      -4.7085642136686658      -0.0002463352764116       0.0002143861598269       0.0000622663301154 0 0
C           2.8646856292762375      13.0060765924940647      -3.6132383711218230       0.0001199618724400      -0.0001617214352364       0.0001782137457965 0 0
C           2.2879555183248899      12.6211452705491869      -2.3142099214663086      -0.0000665399373481      -0.0002062953620816       0.0000191180997663 0 0
C           1.4247735774060983      13.4256397869311854      -1.5368188586426907       0.0000178277534567       0.0000522515168478       0.0000729316177551 0 0
C           1.0090805346731440      12.8495953814074859      -0.3741211847890137       0.0001432781917793      -0.0000115613834048      -0.0000733945752361 0 0
C           2.2936988071300446      11.3004948462016817      -1.8716433580255063       0.0000643179584534       0.0000536798490554       0.0002023287467539 0 0
C           2.8954578596696914      10.1425149144577951      -2.5097655540844284       0.0001715973581782      -0.0000041074231821      -0.0001122385638427 0 0
C           3.5312164124775567       7.8941715035547393      -3.5175499341124246      -0.0002471157818093       0.0001360243063822      -0.0001132554625456 0 0
C           4.5615444641714307       8.7833450635148491      -3.5621611284926358      -0.0000771730252737      -0.0001339402479150      -0.0000977006666818 0 0
C           4.2361974235379352       9.9990643294731409      -2.8701145213290702      -0.0000373981321786      -0.0000349301302142      -0.0001648009702440 0 0
C           5.3180866135335796      10.9788728286788437      -2.6646821658000621       0.0002330255178438       0.0001494500901670      -0.0000084754489582 0 0
C           6.5926166699518838      10.6848033391122907      -1.9922885122695719      -0.0001073907879321       0.0001156472522540       0.0002499139089128 0 0
C           7.4651356537782370      11.6975675596932724      -1.9525464068751370       0.0001216235129495      -0.0002746969311721       0.0003146781503424 0 0
H           2.1635425029397668      13.6123528080570484      -6.7938883174068536       0.0012341068853437      -0.0003046870533423       0.0008094964891337 0 0
H           0.9285054732120169      13.5575630635754312      -4.6164933528504690       0.0011938022491521      -0.0004540035207082       0.0003680768911825 0 0
H           1.1809370098947922      14.3918571667985944      -1.8621729699303211       0.0007962397157756       0.0000992972445389       0.0003445638844560 0 0
H           0.4946370044865079      13.3247635493902923       0.4738154271677976      -0.0000150721323434      -0.0013204689672160      -0.0004305442984223 0 0
H           3.5600636893521744       6.8710488730096877      -3.8766571038680815       0.0007819320728540       0.0007772887356250      -0.0004411905130663 0 0
H           5.4634676578130135       8.5055780013465956      -4.0585508466444509      -0.0015224619133472       0.0009547968669004       0.0008482464397229 0 0
H           6.7029170524059118       9.8236010770284050      -1.4235846142559683       0.0010310237359434      -0.0002694052513682       0.0006182435259234 0 0
H           8.4198723521202883      11.7345314721034217      -1.5390855487418977      -0.0008292444235309       0.0001136469794149      -0.0000335285447496 0 0
S           1.5022270180141348      11.2115279442622651      -0.2693477415635182      -0.0000118618012796       0.0000647035255317      -0.0000147883125977 0 0
S          -0.4913461608896885     -12.5888492460653900      -5.3402121911591909       0.0000018110723908      -0.0000428925581619      -0.0001463576643593 0 0
S          -1.6613040001486841     -11.7924164165540635      -8.4126719069307025      -0.0002059716438355       0.0000873919865480       0.0000512093123950 0 0
S          -6.5786327291281053     -10.4322196602860959      -4.5359987615273143       0.0001011761873152       0.0000813782358304       0.0001623740708327 0 0
C          -1.9945030827131331     -11.7239413479710866      -5.6587460030014372       0.0001902916125915       0.0000955677131306      -0.0000633474707009 0 0
C          -2.2261193191985877     -11.1738685009566350      -6.9301827075172131      -0.0002398718372502       0.0000950288452686       0.0000313813880812 0 0
C          -2.4194088230383577     -10.6213217143525132      -9.4871821285015088       0.0003149118548848      -0.0000492019113005      -0.0000118075195057 0 0
C          -3.0418271820805796      -9.7359323434530243      -8.6830280983605999       0.0000802262653306       0.0002565979549820       0.0000051913017943 0 0
C          -2.9280177794886137     -10.0086330606871332      -7.2784007154528023       0.0000614207026920       0.0002804864851791       0.0000321273156357 0 0
C          -3.3522772497419240      -8.9675251585086215      -6.3400016673208688      -0.0004268480029773       0.0002039096034330       0.0000387991987261 0 0
C          -2.7702479727741820      -7.6495876658732387      -6.4259957564387582       0.0001588766973069      -0.0002298716017571      -0.0000613716573157 0 0
C          -3.0406822288267499      -6.8372876862211776      -5.4030148981356065       0.0002277040507593      -0.0000540249791763       0.0002715007408639 0 0
C          -4.1637363265424927      -9.1025078095641003      -5.2495030363403243       0.0000308356094718      -0.0001155292387405      -0.0000903066709621 0 0
C          -4.8615877982521862     -10.3149275033395575      -4.8672031952565247      -0.0001201823784202      -0.0000221870349078      -0.0001717783976021 0 0
C          -6.5013613546429676     -12.0996127859576088      -4.0378286209898953      -0.0000017988914206       0.0000677809801517       0.0004054677022079 0 0
C          -5.2255497838960778     -12.5679340727410231      -4.1244483301904262      -0.0000905638973138      -0.0004741189065560       0.0002776982112475 0 0
C          -4.2656595509747817     -11.5271186112874595      -4.5068187787730967      -0.0001046297953800      -0.0002339969004033      -0.0001329277390710 0 0
C          -2.8024265434856086     -11.8418982940665209      -4.5341061367205695      -0.0000338064758756      -0.0000544518428348       0.0002059545586461 0 0
C          -2.1846423368810775     -12.5398869960425046      -3.4686815101925408       0.0001581626852357       0.0000347907137320       0.0002330562991927 0 0
C          -0.9297469024857556     -12.9803908984710130      -3.6979151156833674       0.0001977863489409      -0.0000333580318156      -0.0000030248376759 0 0
H          -2.2992819945695908     -10.4587950288149898     -10.5897267020613342      -0.0008089345484455      -0.0001926677864200       0.0004109297184712 0 0
H          -3.3053953564665699      -8.7668886912566659      -9.1055553698214418       0.0001523979626529       0.0011676278321053      -0.0001818544275507 0 0
H          -2.1888397418085899      -7.3571998669836747      -7.3593142192589234       0.0003257958884791      -0.0005366531389261       0.0004942883871639 0 0
H          -2.6805741267988958      -5.9245887770218655      -5.2630536886544430       0.0001628903110982       0.0020363931826165      -0.0003978432500312 0 0
H          -7.3816666406184828     -12.7286847250314317      -3.6555563389316554      -0.0009432193407020      -0.0006322968016616       0.0006615041956987 0 0
H          -4.9922019833285916     -13.5227573499633884      -3.8389479261840838      -0.0000166400175796       0.0013627294359856      -0.0008460015957012 0 0
H          -2.8145307640304211     -12.7661239443461216      -2.6220653352075178      -0.0014252841919891      -0.0013308190390495       0.0027913375096219 0 0
H          -0.3052607468093128     -13.3838590832620614      -3.0274794042147266       0.0008168866121671      -0.0007113228298000      -0.0007805039222197 0 0
S          -4.1041027244456805      -7.5862759194190401      -4.3113115329543694      -0.0000065620966045       0.0001104815221335      -0.0000342190981979 0 0
